5000 30011
1 107 10000
107 2191 10000
2191 3116 9999
3116 3826 10000
3826 4737 10000
4737 4797 9999
4797 4951 9999
4951 4970 9999
4970 4995 10000
4995 4999 9999
4999 5000 10000
218 3455 10000
412 565 9999
339 4107 10000
8 851 10000
298 708 9999
57 4397 10000
175 4134 10000
256 2031 9999
89 2356 9999
424 2718 10000
87 4078 9999
433 905 9999
236 2674 9999
70 149 9999
315 4523 10000
352 2275 9999
443 673 9999
231 919 9999
402 3231 9999
312 2418 10000
238 1502 9999
281 2641 9999
70 4402 9999
374 1899 9999
349 470 10000
421 3836 9999
237 1968 9999
187 2197 10000
428 1057 10000
85 1890 10000
317 3345 10000
175 2789 10000
43 2064 9999
152 2212 9999
21 919 10000
335 3580 9999
476 1302 10000
408 4265 10000
92 659 9999
282 4400 9999
404 2450 9999
421 2466 9999
434 3301 10000
135 140 10000
372 1712 9999
459 3243 10000
245 418 9999
475 2130 10000
416 4358 9999
246 444 10000
261 3791 9999
218 567 9999
486 2752 9999
274 1847 10000
376 4187 9999
12 1624 9999
274 3716 9999
171 946 9999
90 2420 10000
203 4203 9999
201 865 10000
235 3072 9999
232 1589 10000
284 779 9999
324 1939 9999
173 644 10000
456 2583 10000
238 3390 10000
52 2862 9999
77 2180 10000
296 2229 10000
134 703 9999
295 3628 10000
213 700 9999
40 388 9999
281 896 9999
105 1579 9999
378 959 9999
139 601 10000
166 3741 10000
136 2856 10000
187 1218 9999
468 4505 9999
33 4929 10000
220 1148 10000
78 2599 10000
492 1773 9999
208 4032 10000
498 3487 9999
286 1817 10000
216 3549 10000
87 107 9999
260 1033 10000
380 3660 10000
450 460 10000
11 655 9999
65 1544 10000
486 4046 10000
461 2045 10000
198 1810 9999
484 517 10000
145 225 10000
188 3575 10000
485 611 10000
46 3477 10000
2 884 9999
113 1759 10000
282 2101 9999
480 3163 10000
456 992 9999
298 390 10000
198 3450 10000
112 4521 10000
344 4744 9999
473 3525 9999
288 2740 10000
430 3615 9999
404 2001 9999
56 4583 10000
35 1012 10000
286 4462 9999
308 2020 10000
123 4119 10000
486 1163 10000
450 1451 10000
252 4952 10000
375 2838 10000
156 2829 10000
80 2917 9999
75 2261 9999
69 3033 9999
78 1191 9999
98 2849 9999
358 4841 10000
55 2931 10000
306 4551 10000
239 4160 9999
157 4790 10000
266 4499 9999
295 1481 10000
68 2965 10000
426 4104 9999
491 3491 10000
154 2734 9999
335 621 9999
349 4408 10000
58 1879 10000
162 3475 9999
213 237 9999
31 2065 9999
478 2698 9999
255 2985 9999
220 514 9999
409 2486 9999
438 4706 9999
500 2113 9999
108 1529 10000
372 4164 10000
365 1827 9999
338 1922 9999
5 1538 10000
9 4981 10000
49 4362 10000
155 2162 9999
45 4282 9999
456 882 10000
347 3976 9999
162 1095 9999
379 4102 10000
461 1186 10000
261 4819 9999
182 1668 10000
119 1994 9999
279 511 10000
440 4945 9999
76 2687 9999
204 3992 9999
473 3235 10000
264 3501 9999
253 3222 10000
119 3643 10000
443 983 10000
21 4573 10000
167 4091 9999
311 496 9999
441 4005 10000
196 3193 10000
11 390 9999
146 1279 9999
244 2875 10000
199 4108 9999
459 3336 9999
150 1449 9999
376 2731 10000
18 4400 10000
353 938 10000
107 1333 9999
400 3555 9999
132 4079 10000
40 917 10000
212 444 10000
128 3974 10000
443 1299 10000
90 2523 9999
313 4241 9999
240 718 9999
126 2496 9999
9 2897 9999
456 1875 9999
137 569 9999
112 1507 10000
206 4288 10000
22 2256 10000
210 2087 10000
149 2425 10000
80 1908 9999
48 807 9999
79 3003 10000
418 3077 10000
248 4648 9999
176 4216 9999
72 4749 10000
73 311 10000
30 195 9999
256 3787 9999
420 1433 9999
438 3039 10000
438 643 10000
149 2713 10000
430 4669 9999
342 935 10000
147 1811 9999
124 1022 9999
9 3130 10000
349 3889 9999
119 261 9999
320 2121 9999
170 663 10000
37 3888 9999
77 1646 10000
210 2396 10000
206 505 9999
345 1403 9999
63 2347 9999
445 2723 9999
276 1174 10000
406 994 10000
189 445 9999
295 1325 9999
96 834 10000
213 1210 10000
337 4353 9999
135 2466 9999
493 2541 10000
463 2003 9999
30 552 9999
57 3098 9999
486 3792 10000
413 2818 10000
6 1996 10000
171 1964 10000
94 4392 10000
314 1085 10000
392 3272 9999
390 4151 10000
366 3169 10000
142 4644 9999
285 4135 9999
242 3474 10000
219 774 10000
295 2915 10000
167 2322 9999
51 4310 10000
409 4131 10000
313 566 10000
278 292 10000
348 1716 9999
48 2905 10000
107 2599 9999
494 3259 10000
421 4293 9999
152 2194 10000
263 2003 9999
194 3946 9999
450 2209 9999
345 2664 10000
339 2840 10000
459 1328 9999
178 2931 9999
421 4346 9999
212 352 9999
403 1236 10000
145 2147 10000
369 3998 10000
204 3566 10000
354 2062 9999
156 4400 10000
335 823 9999
186 3518 9999
458 1960 9999
465 4067 10000
354 1430 10000
314 4032 10000
420 4592 10000
185 2068 10000
63 3387 9999
155 590 10000
334 4214 10000
303 2597 10000
475 3642 9999
40 3491 10000
387 3434 10000
17 2085 10000
350 3344 9999
32 2919 9999
13 3484 10000
359 538 9999
194 734 9999
480 4481 9999
478 698 10000
237 1083 9999
186 3148 9999
199 3259 9999
223 3222 10000
398 852 9999
198 1967 10000
216 779 10000
462 3059 9999
358 1577 10000
15 2388 9999
174 414 9999
132 775 10000
394 880 10000
275 4132 10000
251 4560 9999
377 3131 10000
456 4353 9999
147 4800 10000
241 3597 9999
453 1059 10000
446 830 9999
24 4430 10000
258 621 10000
496 2447 10000
333 1599 9999
418 3421 9999
352 490 10000
301 1213 10000
464 1467 9999
284 1262 10000
316 723 9999
6 3223 10000
34 2114 10000
161 1444 9999
207 4432 10000
464 4629 10000
210 356 9999
72 3219 10000
87 1995 10000
141 1719 9999
167 2830 10000
42 3457 9999
130 3628 10000
449 3288 10000
440 3353 10000
298 2509 10000
150 4831 9999
453 1814 9999
102 619 9999
481 1493 9999
416 2388 9999
13 2965 10000
377 2972 10000
35 646 10000
10 535 10000
39 469 9999
90 2151 9999
83 589 9999
424 4650 10000
245 2585 9999
76 3432 10000
25 3734 9999
276 2795 10000
161 2680 9999
266 2131 9999
51 1218 10000
290 2157 9999
65 1605 9999
139 1071 10000
151 2458 10000
452 1478 10000
178 1410 10000
486 4104 9999
471 3003 10000
234 4437 10000
491 1142 9999
249 4711 10000
181 348 9999
285 641 10000
25 4887 9999
98 2764 9999
494 4808 10000
452 3994 9999
250 3733 9999
184 1227 10000
30 3294 9999
178 243 9999
381 2267 10000
397 1267 9999
294 4848 10000
380 2264 9999
196 1177 10000
119 3910 9999
29 105 10000
12 3209 10000
217 3070 9999
483 3996 10000
354 972 10000
228 4023 10000
96 2836 10000
170 2987 9999
499 4472 9999
404 4439 10000
446 4798 10000
325 4297 10000
430 2312 10000
325 3937 10000
126 3346 9999
196 684 9999
38 4558 9999
322 4373 9999
181 1137 10000
381 495 9999
383 1677 9999
193 3127 10000
424 4410 9999
317 3627 10000
234 4992 10000
310 4362 10000
307 2513 10000
428 914 9999
8 4519 10000
62 782 9999
381 1110 10000
500 3012 9999
91 1552 9999
29 2648 10000
246 588 10000
247 3405 9999
421 1105 9999
101 2493 9999
392 3515 9999
112 2964 9999
184 3003 9999
280 3655 9999
269 1009 10000
270 2572 10000
494 3542 10000
36 4202 9999
331 4221 9999
78 495 10000
68 1370 10000
167 629 10000
312 1712 9999
487 843 10000
327 1500 9999
313 1910 10000
16 2004 9999
282 4258 10000
198 2225 10000
201 3946 9999
399 2380 10000
306 2824 9999
305 2985 10000
136 981 10000
355 3960 9999
305 4820 10000
170 2880 9999
245 2109 9999
460 3588 10000
72 2652 10000
188 4965 10000
420 4237 9999
183 2694 10000
484 2956 9999
317 799 10000
271 4100 9999
370 1337 10000
487 1528 10000
274 4847 10000
286 2330 10000
130 308 9999
193 4606 9999
83 4615 10000
495 2870 9999
33 138 9999
208 361 9999
316 1774 9999
212 2337 10000
64 2786 10000
50 2761 9999
298 4179 9999
118 2104 9999
47 397 10000
484 4953 9999
490 1885 10000
382 4451 10000
291 1022 10000
76 664 9999
412 4807 9999
203 2686 10000
67 2325 10000
178 4551 10000
71 3880 10000
361 3588 10000
474 543 9999
374 4694 10000
162 4245 10000
400 3726 10000
268 4834 10000
379 1963 10000
378 1702 10000
131 995 10000
377 4302 9999
174 582 9999
109 2513 9999
172 1549 9999
439 3150 10000
329 1668 10000
468 4059 9999
221 3066 10000
213 1962 9999
460 3843 10000
450 2660 10000
182 1534 10000
118 177 9999
257 966 10000
44 2460 9999
394 3884 9999
129 4471 10000
9 1538 9999
412 779 10000
385 4979 9999
118 1027 9999
174 3527 10000
39 1927 10000
330 4851 9999
20 283 9999
172 4884 10000
121 277 9999
117 1612 10000
246 269 9999
447 1761 10000
290 2621 10000
343 2391 9999
381 1396 10000
189 2410 9999
214 4082 10000
136 1529 9999
363 4237 9999
348 3732 10000
43 4019 10000
390 3829 9999
327 2358 10000
475 1361 9999
437 2489 9999
16 968 9999
136 879 9999
292 3692 9999
466 3233 10000
462 2443 10000
335 4004 10000
7 4495 9999
111 2394 10000
346 626 10000
131 4082 9999
312 687 10000
346 4747 9999
75 3475 9999
61 2578 9999
24 1650 9999
410 1014 10000
481 2842 9999
480 1353 9999
42 1295 9999
62 1444 9999
205 1996 10000
76 1832 9999
361 3288 9999
107 4369 10000
182 1069 10000
4 3721 10000
41 2900 9999
7 1732 10000
95 101 10000
386 3653 9999
281 880 10000
257 1704 10000
253 500 9999
169 2304 9999
140 4359 9999
76 2976 9999
440 4981 9999
149 2680 9999
114 3892 9999
392 2466 9999
420 3896 9999
243 1297 10000
17 630 9999
423 977 9999
41 1928 9999
367 3749 9999
472 3083 9999
306 3517 9999
168 1038 10000
305 4083 9999
288 1725 9999
276 4116 10000
257 4091 9999
243 4144 9999
437 3003 9999
330 2141 9999
432 4730 10000
4 1315 10000
354 1052 9999
59 1108 9999
350 4103 9999
185 1367 9999
275 2277 9999
60 148 10000
430 3114 9999
89 152 9999
31 2574 10000
158 4685 9999
11 2775 10000
383 4165 10000
133 1323 9999
200 396 9999
375 3445 9999
213 2891 10000
297 1824 9999
341 1889 9999
236 2060 9999
304 4835 9999
358 2576 10000
270 4106 10000
394 2137 10000
239 1586 10000
199 1776 9999
16 342 9999
284 4140 9999
283 1614 10000
449 1250 10000
454 4894 9999
341 2348 10000
33 4488 9999
363 2047 9999
430 919 10000
410 1612 10000
13 4679 9999
342 614 9999
455 2493 9999
414 2325 9999
425 2249 10000
367 1993 10000
109 1097 10000
250 3734 10000
76 4042 10000
221 1959 9999
208 717 9999
13 4381 9999
103 111 9999
260 511 9999
177 4597 9999
55 2781 9999
30 1913 9999
28 4508 10000
281 1670 9999
218 4908 10000
374 1585 9999
463 749 10000
307 4662 9999
432 3890 9999
118 4522 10000
322 347 9999
120 1589 10000
117 4551 9999
327 3368 9999
361 446 9999
423 2321 9999
155 2875 10000
118 215 9999
82 2776 10000
284 4824 9999
420 3993 10000
200 3829 9999
330 2306 10000
210 3543 9999
235 407 10000
26 1056 9999
171 2728 10000
273 3475 10000
97 3569 9999
344 2491 9999
49 2784 9999
106 3668 9999
156 1615 10000
27 1026 9999
282 2070 9999
132 1676 9999
152 246 10000
54 2379 9999
195 704 9999
204 3328 10000
87 3412 10000
407 3197 9999
271 2572 9999
334 3450 9999
111 4655 10000
119 1551 9999
60 1921 10000
461 2602 10000
112 1839 9999
286 998 9999
419 4454 10000
86 4662 10000
126 1642 10000
486 3089 10000
321 1225 10000
298 4711 10000
263 2291 9999
428 3283 9999
13 1793 9999
136 3489 9999
379 3398 9999
447 1004 9999
404 3500 9999
87 3597 9999
58 557 10000
239 541 10000
70 2239 10000
69 4994 9999
379 657 9999
269 933 9999
96 4479 9999
179 1504 10000
440 4512 9999
88 1589 9999
96 2390 9999
396 3601 10000
254 748 9999
278 3201 9999
58 263 10000
213 2589 9999
300 836 9999
389 1234 10000
222 338 10000
185 1455 10000
163 2461 10000
181 4319 10000
424 2239 9999
24 1370 9999
430 668 9999
156 2785 9999
50 1303 9999
444 2183 10000
367 4664 10000
215 251 9999
334 4755 10000
424 1824 9999
57 3311 9999
239 4039 9999
164 3215 9999
402 3943 10000
369 1538 9999
330 2804 9999
453 1789 9999
13 1093 10000
140 2635 10000
77 3908 9999
12 1459 10000
224 1839 10000
88 935 10000
301 884 10000
443 855 10000
104 1387 10000
343 1050 9999
190 359 9999
162 2799 10000
416 3297 9999
34 4512 9999
422 3897 10000
25 292 9999
441 3716 10000
159 1990 9999
409 1691 10000
330 1494 10000
458 2069 10000
430 2114 10000
349 1292 10000
281 881 9999
152 4557 9999
25 1644 10000
66 4054 10000
140 2936 10000
249 340 9999
316 1505 9999
424 3585 9999
8 1797 9999
38 942 9999
101 842 10000
369 3317 10000
157 2500 9999
262 4354 10000
79 349 9999
238 4051 10000
378 2117 9999
262 3599 10000
359 4421 9999
296 3534 9999
164 4875 9999
28 3785 10000
462 2901 9999
422 4281 10000
48 1785 10000
407 1989 9999
209 4558 10000
149 902 9999
174 740 10000
123 3856 10000
17 1876 9999
88 647 10000
55 1222 10000
246 1529 10000
25 1784 9999
310 2569 9999
89 3840 10000
372 1177 9999
385 4478 9999
298 2662 9999
498 4127 9999
384 3883 10000
202 4521 9999
471 4609 10000
280 2929 9999
18 4964 9999
500 2970 10000
177 4028 10000
146 3512 10000
479 3510 10000
498 2513 9999
89 3762 9999
3 2992 10000
328 1487 10000
80 4580 10000
331 1725 10000
65 552 9999
144 4961 10000
214 3445 10000
434 794 10000
289 4306 10000
339 704 9999
246 2210 9999
46 1070 9999
315 3766 10000
86 1264 10000
398 2760 10000
172 1896 9999
425 4056 10000
307 3862 9999
152 413 10000
212 3665 9999
241 1981 9999
27 4193 9999
336 4515 9999
415 3683 9999
293 4230 10000
269 3205 9999
280 3636 9999
116 3597 9999
437 2239 9999
480 1547 10000
129 3182 10000
32 1428 9999
345 3611 10000
471 3178 9999
162 1477 9999
405 1756 9999
201 4572 9999
421 743 10000
461 1581 10000
434 1537 10000
100 1586 10000
174 2054 9999
13 3893 10000
166 2503 10000
48 2850 9999
450 1438 10000
130 3704 9999
415 3254 10000
132 619 9999
338 4572 9999
222 4116 10000
367 4724 9999
462 1833 10000
115 3904 10000
339 544 10000
488 4007 9999
354 3494 10000
67 1673 10000
331 428 10000
457 3469 9999
148 3643 10000
323 3021 10000
333 504 10000
295 4917 10000
275 4893 9999
193 4528 9999
2 3954 9999
265 3701 10000
128 4203 10000
412 1242 10000
364 2598 10000
272 2023 9999
271 1773 9999
444 3868 10000
272 3153 10000
200 2784 10000
240 3467 9999
245 3082 10000
172 1006 10000
435 3475 10000
267 494 10000
49 2995 10000
203 3483 10000
210 3393 10000
214 2912 9999
494 2941 10000
449 4749 9999
140 2571 10000
167 1769 9999
326 2897 10000
491 1461 10000
253 1190 9999
124 2031 10000
100 1719 9999
447 2328 10000
59 1717 9999
244 2172 10000
431 725 10000
387 717 9999
309 2403 10000
476 1788 10000
169 3198 10000
62 4049 9999
101 2412 10000
98 4159 10000
1 2207 9999
402 3030 9999
66 103 9999
370 2790 9999
226 750 9999
399 471 10000
5 539 9999
465 2059 10000
79 2247 10000
383 1554 9999
186 4125 9999
262 2697 9999
369 2441 10000
350 2975 10000
413 3908 10000
118 4428 9999
325 2957 10000
261 3614 9999
15 1561 10000
495 3211 9999
330 597 10000
429 2933 10000
177 4998 9999
207 2401 9999
489 2103 9999
215 2497 9999
393 2697 9999
208 1908 9999
293 1733 10000
191 3395 10000
219 1954 9999
491 3507 9999
387 4968 9999
238 1633 10000
58 3849 10000
160 4636 9999
419 3248 9999
143 4233 9999
183 4171 9999
221 4048 9999
322 3724 9999
402 3449 9999
423 3767 9999
231 339 10000
384 692 10000
49 717 10000
109 4409 10000
240 415 9999
457 4532 9999
174 407 9999
414 669 9999
305 4875 10000
443 2845 10000
242 1836 10000
200 1730 9999
95 1580 9999
75 1125 9999
417 530 10000
59 490 10000
77 4364 10000
349 2822 10000
168 4645 10000
430 4678 10000
263 1302 10000
176 606 9999
88 3771 9999
58 2838 10000
423 3428 10000
42 2537 9999
314 524 10000
396 3205 10000
328 2811 9999
13 400 9999
215 747 10000
440 587 9999
123 4177 10000
2 158 10000
96 3903 10000
279 747 9999
372 4247 10000
470 1465 10000
445 1437 9999
23 1060 10000
314 1507 9999
21 3358 9999
434 1105 10000
414 2032 10000
426 4758 10000
421 2122 9999
428 2558 10000
490 4303 9999
173 3583 10000
262 3966 9999
312 2383 9999
20 1434 10000
387 2515 9999
11 830 9999
171 3307 9999
288 1132 10000
89 1812 10000
189 2355 10000
116 3786 9999
313 3142 10000
288 3108 9999
456 801 10000
225 2267 10000
310 3948 10000
361 2433 10000
103 2120 10000
182 3188 10000
276 2014 9999
276 2738 10000
241 4299 10000
18 3134 10000
378 2320 10000
125 2445 9999
66 2926 10000
376 2417 9999
125 4464 10000
54 1791 10000
271 3636 10000
276 501 9999
16 891 9999
81 1078 10000
5 4068 9999
279 3558 10000
473 3029 9999
181 1956 10000
400 687 10000
88 181 9999
280 3086 10000
483 1618 10000
341 2249 9999
357 1426 10000
383 710 10000
472 2184 9999
490 3641 10000
374 3610 10000
30 3559 9999
80 2659 9999
110 3013 9999
18 945 9999
340 636 10000
159 387 10000
442 963 10000
355 4213 10000
303 629 9999
29 2249 9999
254 2836 9999
3 2238 10000
392 4582 10000
409 3322 10000
32 4684 9999
274 3017 10000
478 3130 9999
291 3092 9999
177 2561 10000
409 1571 9999
469 1004 10000
378 399 9999
356 2047 10000
366 3981 10000
58 4742 10000
317 3060 10000
199 1388 10000
329 1410 9999
293 2748 10000
209 1482 9999
257 4887 9999
71 4200 10000
231 3691 10000
376 2242 9999
43 4193 10000
147 1004 10000
253 859 9999
245 1550 9999
191 4195 9999
151 871 9999
60 1161 9999
468 3736 9999
278 3120 10000
487 3632 9999
410 3126 9999
360 4097 10000
166 4439 10000
428 3575 10000
79 4951 9999
241 2168 10000
494 971 10000
301 1111 9999
361 2631 10000
482 3463 9999
8 1656 10000
122 286 10000
370 589 9999
320 4443 9999
460 4915 10000
402 4395 9999
167 4545 10000
68 636 10000
173 4988 10000
181 2019 10000
89 1395 10000
65 1582 9999
179 2966 9999
325 1712 10000
487 2588 9999
487 757 9999
238 1552 9999
388 2912 10000
328 1999 9999
230 1556 10000
442 2233 10000
198 1452 10000
139 3452 9999
273 4419 9999
150 4411 9999
176 1667 10000
414 2235 9999
482 1925 10000
446 3078 9999
2 3760 9999
310 1335 10000
55 3356 9999
376 1560 10000
436 2339 9999
270 3259 10000
330 3634 9999
8 201 10000
23 3875 9999
224 4719 10000
118 1041 9999
331 2633 9999
366 1420 9999
383 2929 9999
461 2393 10000
102 4628 9999
97 4378 10000
134 2840 9999
341 4883 10000
340 3137 10000
282 4473 9999
157 1306 10000
90 827 10000
116 323 9999
295 4385 10000
473 1605 9999
61 4204 9999
304 4484 10000
189 4417 10000
443 3191 10000
231 742 9999
389 2924 9999
332 4268 9999
416 4881 9999
282 3227 10000
477 4035 9999
387 3407 9999
149 4855 9999
251 3782 10000
320 422 10000
149 3767 9999
12 2299 10000
215 1207 9999
149 444 10000
282 4484 10000
453 880 9999
202 4049 9999
492 1729 10000
470 3013 9999
359 3030 10000
27 2737 9999
240 2878 10000
459 3164 9999
5 4645 10000
484 4889 10000
312 4611 9999
446 829 9999
156 947 9999
70 1859 10000
168 1887 10000
279 2197 9999
102 542 9999
244 3165 9999
150 2242 9999
367 4708 10000
369 3896 9999
34 2420 10000
67 152 10000
430 1277 10000
89 2605 10000
99 1342 9999
376 4029 10000
277 3626 10000
39 2254 9999
109 268 10000
333 4781 9999
359 3044 9999
473 1946 10000
411 3663 10000
372 1939 10000
57 1547 10000
434 3127 9999
86 2443 10000
203 2595 10000
248 4191 9999
315 4605 9999
161 4927 9999
176 3156 9999
318 1720 9999
267 1651 9999
480 800 9999
265 3471 9999
147 3345 10000
38 4027 10000
239 3371 9999
328 1311 9999
77 1315 10000
211 917 10000
237 3769 10000
57 2162 9999
421 1452 10000
1 2997 10000
52 417 10000
416 3546 9999
239 3244 9999
373 992 9999
255 845 9999
332 2054 9999
254 2741 9999
374 685 9999
220 990 9999
402 2841 9999
350 1409 9999
473 2933 10000
377 1602 10000
418 537 10000
335 1971 10000
86 2814 10000
154 742 9999
249 4547 9999
322 1033 10000
347 1936 9999
118 1744 10000
326 4356 10000
158 4060 9999
189 2512 10000
18 2885 10000
134 4971 9999
85 4537 9999
219 290 10000
143 4625 10000
247 1282 9999
475 1155 10000
347 3040 9999
159 1409 9999
158 1287 9999
398 3700 9999
225 3331 9999
105 2780 10000
116 3693 10000
108 1831 10000
207 4983 10000
110 975 9999
70 1205 10000
42 885 9999
488 2119 10000
94 2598 9999
127 2627 10000
40 4736 10000
285 648 10000
472 4881 9999
43 1187 9999
380 864 10000
243 1359 9999
357 1425 9999
59 2789 10000
168 2459 10000
389 1846 10000
11 3023 10000
29 2273 10000
239 2690 10000
372 3371 9999
451 1669 9999
334 3738 9999
443 1471 10000
298 2312 9999
375 4308 9999
226 1755 9999
262 534 10000
310 2329 9999
276 3124 9999
217 2462 10000
46 2734 10000
260 2535 10000
168 956 10000
103 4923 9999
222 2794 9999
398 2500 9999
131 2406 9999
135 622 9999
171 3595 9999
305 702 9999
222 3285 9999
64 3121 9999
453 940 10000
64 2642 10000
283 972 9999
371 3271 9999
184 4160 10000
180 4315 10000
44 4059 10000
163 4139 10000
269 671 9999
322 4440 10000
379 3125 10000
275 4550 9999
290 424 9999
32 1317 9999
283 925 9999
465 1814 9999
335 1949 10000
434 3787 9999
218 939 9999
362 3284 9999
484 2265 10000
334 4175 10000
86 4588 9999
23 3333 10000
457 4883 9999
410 3352 9999
189 4835 10000
10 475 10000
227 2767 9999
164 3122 9999
499 1102 10000
163 2783 9999
382 3385 9999
468 3268 10000
277 4384 10000
93 2137 9999
481 3734 10000
334 3809 9999
329 3780 9999
92 3688 10000
229 4340 10000
15 3503 9999
479 3958 10000
106 168 9999
191 1955 10000
263 4721 9999
409 3131 10000
303 617 9999
202 1836 10000
411 1099 9999
111 2494 10000
445 4446 10000
35 4233 10000
286 4766 10000
410 1440 10000
495 2149 10000
430 4673 10000
10 3010 9999
305 4589 9999
16 3377 9999
413 3130 10000
418 1846 9999
478 4945 9999
159 978 10000
208 303 9999
398 4891 9999
227 1067 9999
302 2467 10000
239 1238 9999
64 2833 9999
6 1070 10000
413 3310 9999
213 516 9999
413 724 10000
152 3796 10000
287 3832 9999
409 1164 9999
35 576 10000
333 3247 9999
426 3684 10000
460 2787 10000
284 1412 10000
412 3463 10000
438 3719 10000
484 3708 9999
170 2604 9999
163 973 9999
298 316 10000
496 4768 9999
21 4038 10000
492 1484 10000
429 448 10000
382 4207 10000
225 4453 9999
293 3852 10000
208 533 9999
114 4724 9999
340 3246 10000
227 2037 10000
74 1149 10000
482 708 10000
126 2175 9999
191 4308 10000
254 4195 10000
244 1750 10000
196 1436 10000
62 4619 10000
361 2713 10000
407 2539 10000
390 1761 9999
333 3266 10000
476 2064 10000
178 3106 10000
107 1841 9999
480 1196 9999
22 3831 9999
439 1015 10000
64 1230 9999
93 4577 10000
480 489 9999
142 2187 10000
264 2392 9999
466 996 10000
260 1987 10000
203 2332 10000
463 4374 9999
408 983 10000
332 4007 10000
46 2731 10000
465 1604 9999
91 750 9999
457 817 10000
498 1001 9999
393 2953 10000
239 4195 10000
325 484 10000
197 3507 9999
303 1988 9999
440 1036 10000
122 3331 10000
233 4804 10000
291 1366 9999
15 245 10000
127 1607 10000
221 3730 10000
32 1786 9999
136 1167 9999
201 4944 10000
368 1746 10000
264 4020 10000
264 4316 10000
93 2483 9999
12 4038 10000
192 3589 10000
18 972 9999
422 538 10000
110 4975 9999
325 2973 10000
479 2997 9999
208 1232 10000
264 4909 10000
299 4783 9999
494 2589 10000
186 3906 9999
463 785 10000
484 658 9999
338 2773 10000
296 762 10000
327 4100 10000
35 542 10000
13 1932 10000
92 1062 9999
3 2404 9999
151 1668 9999
164 2884 10000
42 4953 10000
493 2017 10000
286 1058 9999
445 1849 9999
492 2870 9999
325 870 10000
92 4960 9999
191 3956 9999
327 876 10000
372 1488 9999
254 4048 9999
239 3103 10000
462 4864 9999
366 1088 9999
289 473 10000
12 4261 9999
403 2229 10000
342 2462 10000
155 445 9999
130 4015 10000
63 650 9999
219 3424 10000
153 4882 9999
490 4248 10000
265 4968 10000
418 795 10000
306 3257 9999
380 817 9999
316 713 9999
462 882 10000
138 4168 10000
83 3890 9999
373 742 9999
437 4497 9999
184 3925 10000
93 4397 9999
284 4533 10000
54 3905 10000
175 4637 9999
328 4553 10000
108 234 9999
236 3073 10000
421 487 9999
236 1751 10000
49 272 9999
233 3030 9999
212 2395 9999
323 1563 10000
347 4746 10000
362 3276 9999
349 1262 10000
134 1202 10000
202 4758 9999
68 2691 10000
262 3895 9999
111 4464 9999
41 1693 9999
313 1000 10000
333 4094 10000
128 4529 9999
453 2354 9999
140 4688 9999
133 3027 10000
391 4684 10000
326 2560 9999
34 115 10000
318 1234 10000
88 1753 10000
158 1597 10000
289 1808 9999
65 4403 10000
202 4595 9999
476 2656 10000
319 2778 10000
32 3649 9999
113 426 10000
153 4525 9999
60 1326 10000
111 1251 10000
95 1691 9999
263 1281 10000
298 2189 9999
456 2793 10000
17 3449 10000
272 2051 9999
267 1948 9999
219 3259 9999
412 2301 10000
403 3180 10000
172 3811 9999
226 4288 9999
30 2533 10000
480 4854 9999
325 2290 10000
332 431 9999
22 870 9999
491 4931 10000
192 1497 10000
248 3380 10000
416 2537 10000
125 3066 9999
291 3601 10000
386 3303 9999
294 3227 10000
134 1882 9999
126 3668 9999
151 2191 9999
316 2605 9999
422 776 9999
396 2988 10000
427 4297 10000
356 1128 9999
348 1086 10000
51 3810 10000
249 1222 10000
437 1247 10000
451 3601 9999
479 2319 10000
232 258 9999
222 1426 10000
29 621 9999
270 1448 10000
153 3344 10000
318 676 9999
381 4646 10000
268 1857 10000
98 3369 9999
166 4860 10000
361 2554 10000
289 3768 10000
412 2710 10000
315 3978 10000
345 4783 9999
53 507 10000
253 2454 10000
371 469 10000
376 1914 10000
124 187 9999
35 1857 10000
109 1864 9999
19 1917 10000
177 3103 10000
432 951 10000
419 2695 9999
251 4356 9999
51 1364 9999
471 1704 10000
467 2919 9999
430 3045 9999
380 451 9999
452 604 10000
297 1405 10000
325 3366 10000
23 1202 10000
113 791 9999
68 4856 9999
369 1844 9999
132 587 9999
122 2901 10000
370 2650 9999
4 3066 9999
357 740 10000
303 3890 10000
188 2843 10000
386 1839 9999
385 2492 9999
275 2314 10000
240 515 9999
58 714 10000
106 1561 10000
133 2489 10000
497 2508 10000
279 2171 10000
283 2690 9999
377 1022 9999
477 1208 10000
136 2855 9999
399 1304 9999
281 4599 9999
343 1407 10000
356 1524 9999
363 2047 10000
41 3682 9999
365 1512 9999
433 3208 9999
306 4130 9999
228 253 9999
387 405 10000
288 3971 10000
175 3168 10000
277 4047 9999
352 1717 9999
125 876 10000
401 4271 10000
41 785 10000
66 2345 10000
28 2859 10000
105 2559 10000
306 3959 9999
284 1216 9999
361 740 10000
399 2592 9999
226 1344 9999
171 340 9999
453 695 9999
241 3253 10000
267 4300 9999
495 2006 10000
139 4671 9999
57 2710 10000
247 533 10000
136 1886 10000
31 4055 9999
24 4089 9999
279 4294 9999
464 2942 9999
393 448 9999
292 1568 9999
84 1274 10000
448 2765 9999
301 900 9999
95 4682 10000
413 4474 10000
68 4060 9999
272 1624 9999
179 3177 10000
173 955 9999
76 1785 9999
442 1619 9999
496 4588 10000
469 1817 10000
251 4393 9999
294 1749 9999
453 3753 9999
208 2640 10000
415 4247 10000
264 3223 9999
469 1448 9999
338 1063 9999
55 4701 9999
229 710 9999
390 3153 9999
51 1170 10000
5 473 9999
257 4529 10000
43 3973 9999
403 4073 9999
225 2060 9999
476 4286 9999
476 2787 9999
418 1214 9999
468 1944 9999
227 2408 9999
157 2568 9999
385 408 10000
323 2546 10000
82 285 9999
485 1723 10000
362 3342 9999
262 2950 9999
96 1964 10000
239 1900 9999
97 3854 9999
91 2572 9999
54 2719 9999
196 1282 9999
399 3765 10000
496 1175 10000
13 1569 9999
140 2969 9999
385 1987 10000
162 1618 10000
268 4219 9999
437 2591 9999
440 1145 10000
167 4097 10000
299 2855 10000
397 3936 10000
221 3662 10000
415 642 9999
172 4248 9999
59 414 9999
63 2791 10000
329 3091 10000
343 4217 10000
500 1732 9999
253 2085 10000
426 1343 10000
380 3143 9999
57 2315 9999
318 4134 9999
232 1777 9999
128 1304 9999
343 1275 9999
46 197 9999
237 2522 9999
63 738 10000
136 2011 9999
454 3237 9999
239 1970 10000
288 2232 9999
24 4275 10000
48 229 10000
167 1189 10000
299 1617 9999
230 1821 10000
174 788 10000
164 4457 9999
137 3763 9999
252 2745 9999
466 1596 10000
125 4208 9999
238 2202 10000
465 4137 9999
260 3321 10000
435 789 9999
458 4362 10000
363 3807 9999
400 4277 9999
308 4947 9999
85 1398 10000
334 502 10000
393 1723 9999
220 2760 10000
377 2241 10000
445 1748 9999
224 4053 9999
196 2511 9999
145 177 10000
186 253 9999
37 4587 9999
274 2891 10000
424 833 9999
452 3800 10000
238 3362 10000
318 4490 9999
220 4540 10000
482 2542 10000
326 2279 9999
241 2142 10000
382 442 10000
71 551 9999
350 3413 10000
64 2932 9999
272 3575 9999
91 3088 9999
174 2005 9999
171 410 9999
177 796 9999
260 2941 9999
426 4113 10000
267 3382 9999
197 317 10000
88 912 10000
257 4921 9999
46 1108 9999
494 4109 10000
193 3915 10000
43 1298 10000
386 418 10000
190 1385 10000
199 1678 10000
153 1884 9999
230 4704 9999
356 3487 10000
11 1510 10000
289 353 9999
274 4971 9999
20 590 10000
489 1781 9999
418 2029 9999
212 4683 9999
176 2765 10000
341 549 9999
355 4840 9999
104 3066 9999
67 3747 10000
60 3773 9999
260 3602 10000
276 568 9999
449 4411 9999
443 1453 9999
361 3673 10000
22 1486 10000
280 4471 9999
478 2097 9999
33 951 10000
185 1028 10000
461 2362 9999
491 3009 9999
297 3751 10000
451 2376 10000
106 1402 9999
22 4997 9999
384 3140 9999
71 4256 9999
95 1959 9999
92 1401 10000
249 3351 9999
426 1028 9999
148 4740 9999
46 268 9999
64 1141 9999
340 756 10000
85 219 9999
203 882 9999
85 3660 10000
145 3482 10000
317 3169 9999
316 3593 9999
256 3391 9999
171 345 9999
331 1424 9999
353 3194 9999
24 476 9999
396 1763 9999
41 169 9999
370 2110 9999
46 3467 10000
50 4144 10000
453 2216 10000
493 858 9999
420 4811 9999
132 156 10000
258 1544 9999
92 1268 10000
318 1362 10000
124 4308 9999
483 2552 10000
85 3440 10000
451 1752 10000
387 2766 9999
462 2712 10000
343 563 10000
432 1650 9999
117 913 9999
205 2496 9999
300 1188 10000
342 2347 10000
235 4233 10000
79 2891 9999
3 4849 10000
33 4359 9999
464 2446 10000
107 3247 9999
452 591 9999
228 2171 10000
184 4695 9999
481 4477 10000
233 2192 10000
413 851 9999
473 2386 10000
163 1389 9999
159 2152 10000
199 3014 10000
7 2197 9999
23 1921 9999
477 1315 9999
245 3129 10000
176 4811 9999
392 4641 10000
217 4121 9999
163 1529 10000
45 3706 10000
158 4041 9999
193 3344 9999
182 2973 9999
499 4501 9999
312 3041 9999
76 401 9999
180 4581 9999
470 4852 10000
497 2208 9999
72 689 9999
442 2491 10000
221 2138 10000
374 4398 9999
190 4233 10000
26 1722 9999
324 3011 10000
241 740 10000
367 2548 9999
332 492 9999
486 1097 9999
70 1077 10000
249 809 10000
34 2104 10000
4 597 9999
355 3615 9999
1 4725 10000
427 3743 10000
353 590 9999
85 4807 9999
352 2270 9999
295 4911 10000
480 3165 9999
190 4219 9999
495 4045 9999
66 3504 10000
247 2315 9999
48 184 10000
490 2408 10000
392 708 9999
194 869 9999
471 1277 10000
375 4264 9999
393 2329 9999
72 3453 9999
62 162 10000
153 1944 9999
82 1045 9999
30 763 9999
122 4471 10000
20 2284 9999
441 4886 9999
295 2381 10000
89 1442 9999
68 1913 10000
330 936 9999
367 606 9999
349 3597 9999
4 4737 9999
347 3015 10000
326 470 9999
70 4038 10000
169 2536 9999
145 3781 10000
47 2695 9999
131 3284 9999
496 3122 9999
471 3066 9999
30 4265 10000
27 532 10000
382 4374 9999
210 804 10000
327 4969 9999
57 1501 10000
53 4875 9999
165 2825 9999
198 513 9999
497 2235 10000
102 4020 10000
400 3095 10000
433 3404 10000
106 1900 9999
183 196 9999
268 2416 10000
181 4875 10000
264 298 9999
387 4480 10000
26 585 10000
449 2358 9999
234 2888 10000
241 4913 10000
331 3944 9999
180 4988 10000
62 478 9999
198 1094 9999
42 2418 9999
149 3312 10000
358 2132 10000
219 4277 9999
336 2150 9999
433 587 9999
264 3020 9999
145 2109 9999
198 2531 10000
99 1498 10000
402 3944 9999
427 4192 10000
41 4702 9999
19 4894 9999
264 3425 9999
396 1681 10000
279 2851 9999
346 4808 9999
160 4007 9999
167 2782 9999
4 2060 9999
242 3195 9999
387 4519 9999
75 338 10000
345 1860 9999
63 1619 9999
378 2634 10000
418 4826 9999
364 2967 9999
20 1849 10000
486 1091 10000
139 1611 9999
441 2186 10000
253 1647 10000
179 4176 10000
248 4772 9999
46 3357 10000
231 3882 10000
354 600 10000
376 850 9999
124 848 9999
343 847 10000
132 632 9999
300 3425 10000
370 4224 10000
56 4530 10000
40 3685 9999
402 4068 9999
212 2558 10000
276 415 10000
358 1589 9999
110 1698 10000
467 4075 10000
98 2103 9999
445 4942 10000
462 1158 10000
176 3468 9999
30 3402 10000
170 3046 9999
41 1593 9999
323 3777 9999
61 2299 9999
446 3621 10000
30 499 10000
357 1355 10000
267 3426 9999
219 410 10000
455 4505 10000
123 2782 10000
429 4223 9999
377 4259 10000
364 2171 9999
412 2610 10000
300 3186 10000
51 3182 10000
339 3308 9999
126 1431 10000
187 1216 9999
309 2566 10000
377 2145 9999
51 733 9999
427 683 9999
291 4296 10000
166 1675 9999
487 982 10000
232 4764 9999
311 3231 10000
136 2699 10000
247 1859 9999
486 4626 9999
408 4692 10000
188 242 10000
397 3641 9999
476 1591 10000
487 2134 9999
399 2929 9999
189 4580 9999
393 739 9999
457 1635 9999
243 3403 9999
340 1575 9999
195 1009 9999
487 4461 9999
409 1376 10000
82 2498 10000
379 4116 9999
425 1747 10000
404 4322 9999
411 2762 9999
336 4858 10000
136 1688 9999
12 2815 10000
493 3792 9999
222 2955 9999
152 3833 10000
166 4396 10000
27 867 9999
310 1060 10000
271 4275 9999
307 1027 9999
108 1772 9999
44 546 9999
436 3062 10000
170 3653 9999
446 2254 9999
192 1102 10000
179 2764 9999
106 1317 9999
16 1329 10000
42 129 9999
294 3843 10000
220 2775 9999
236 4346 9999
84 1579 9999
145 1341 9999
424 3478 10000
352 1959 9999
206 3726 10000
149 874 10000
192 797 9999
486 1325 10000
142 3738 9999
488 1377 10000
85 102 9999
222 4512 9999
291 908 9999
105 4868 9999
245 3151 10000
131 2987 9999
155 4666 10000
87 965 9999
408 1032 10000
45 3995 9999
210 4929 9999
247 2351 10000
408 1477 10000
174 3840 9999
121 1989 10000
379 1473 9999
169 3887 9999
462 625 9999
446 748 9999
227 1433 9999
155 1426 9999
274 951 9999
216 1290 9999
57 2363 10000
248 2668 9999
429 4970 9999
456 4735 9999
456 1788 9999
218 3936 9999
235 3490 9999
84 670 9999
199 2534 9999
461 3623 9999
263 4562 10000
82 1066 9999
249 288 10000
115 2025 9999
353 2522 9999
360 911 10000
433 4209 10000
23 94 9999
277 1365 10000
423 1236 9999
169 2325 10000
27 4384 10000
288 1074 9999
46 4279 9999
288 1204 9999
377 1488 10000
452 4425 10000
388 1568 10000
377 3601 10000
256 2546 10000
34 2739 9999
109 3748 10000
318 4894 10000
32 1199 10000
266 3140 10000
106 2434 10000
241 3552 9999
105 3393 9999
316 1020 10000
42 3080 9999
214 2360 10000
167 1351 9999
421 2760 9999
10 2534 9999
283 458 9999
183 3610 10000
459 1574 10000
280 942 9999
191 4563 10000
251 1477 9999
200 2120 10000
272 877 10000
436 2570 9999
291 647 9999
81 302 10000
229 1496 9999
230 3817 9999
81 2848 10000
340 4510 10000
91 3811 9999
437 907 9999
263 1585 9999
279 3657 9999
374 801 9999
118 1133 10000
151 1246 10000
131 3890 10000
462 807 9999
327 3003 10000
247 558 10000
479 2629 9999
286 1000 9999
252 4254 10000
9 3094 10000
133 2706 9999
4 2088 10000
102 4191 10000
487 794 9999
92 2130 9999
225 305 9999
347 1384 9999
459 2585 10000
74 4373 10000
237 530 9999
109 4132 9999
314 2022 9999
446 2013 10000
99 856 9999
54 3742 10000
166 1919 10000
148 3280 9999
347 1899 9999
157 2065 10000
31 2982 10000
250 4618 10000
105 695 9999
285 562 10000
254 311 10000
457 617 10000
303 1240 9999
480 1294 10000
233 2735 10000
288 4796 9999
10 406 9999
78 4883 10000
496 3934 10000
456 4459 10000
442 3060 9999
348 3601 9999
160 3351 9999
442 785 9999
200 3696 9999
126 3646 9999
275 4950 9999
201 706 9999
132 4502 9999
333 597 10000
219 4387 9999
223 4740 10000
326 1147 9999
248 2719 10000
410 3562 10000
495 3290 9999
411 4618 9999
23 2569 10000
257 3852 9999
272 4379 9999
424 3981 9999
203 4781 10000
499 4069 10000
440 2136 9999
200 917 9999
66 3506 10000
261 495 9999
2 2686 10000
288 3816 9999
20 4720 9999
67 2840 10000
426 2303 10000
233 4456 9999
96 4489 9999
235 3405 10000
110 4557 9999
445 1793 10000
419 2720 9999
441 4587 9999
473 4997 10000
192 1007 10000
263 1044 10000
264 422 10000
256 1150 9999
411 1622 9999
148 1260 9999
147 3576 9999
482 1765 10000
243 4251 9999
157 1748 10000
302 1431 9999
161 4197 10000
250 4329 9999
270 4670 10000
301 1147 9999
148 512 9999
334 3254 9999
20 866 10000
387 1900 9999
474 3967 9999
5 1596 10000
296 1488 9999
212 2512 10000
161 4821 9999
339 2847 10000
423 4119 9999
177 4153 9999
56 3032 9999
382 4735 10000
308 1786 10000
399 2397 10000
56 1236 9999
125 4191 10000
471 932 9999
389 2701 9999
422 4215 10000
191 2979 9999
342 1062 9999
54 4861 10000
236 2765 10000
301 4573 10000
64 97 10000
417 4390 9999
204 2393 9999
423 3181 10000
117 3883 9999
279 4454 10000
387 1927 9999
480 1233 10000
249 2096 10000
95 3256 10000
96 654 9999
458 2748 10000
217 4498 10000
103 3260 10000
113 380 9999
172 3752 10000
161 2177 10000
243 549 9999
456 496 10000
141 2117 10000
366 4926 9999
482 4983 10000
340 1608 10000
37 3728 10000
364 1777 9999
442 1145 10000
241 1559 9999
467 4411 9999
198 2230 10000
462 1709 9999
249 904 10000
55 240 10000
181 486 10000
16 598 10000
478 3306 10000
158 4703 9999
384 2774 9999
375 3429 10000
323 4338 10000
99 1543 9999
363 1549 10000
325 3100 9999
339 3343 9999
359 4871 10000
40 3283 10000
459 2203 9999
442 4252 9999
132 4353 9999
48 3818 9999
155 4065 10000
177 3353 9999
313 331 9999
229 1090 10000
130 1130 9999
153 2595 9999
413 2986 10000
258 4731 9999
240 734 9999
326 2671 9999
206 1873 9999
154 1566 10000
93 753 9999
78 4497 10000
361 3220 9999
81 3605 9999
188 3309 9999
226 1137 9999
320 2557 10000
60 2576 9999
283 3168 9999
428 1497 9999
214 817 10000
300 1434 10000
350 4507 9999
56 1014 9999
339 2094 10000
320 1902 9999
402 3087 9999
25 1796 10000
336 703 10000
141 4706 9999
182 4617 9999
49 222 10000
238 3928 10000
8 1496 9999
383 814 10000
190 404 10000
375 2319 9999
240 4137 9999
202 2127 10000
124 2526 10000
108 4327 10000
403 1627 10000
392 4695 9999
332 3837 10000
119 3220 9999
287 1446 10000
419 4024 10000
417 1098 9999
318 3565 9999
101 801 10000
30 4123 10000
396 460 9999
229 1574 10000
390 2513 9999
281 3198 10000
499 3625 9999
366 862 9999
270 4154 9999
160 4924 10000
449 4762 10000
72 3854 10000
243 2943 10000
50 836 9999
31 4599 9999
92 1770 9999
481 2707 9999
59 3579 10000
50 2729 10000
307 2117 10000
449 2874 10000
216 2503 9999
353 4198 10000
193 2678 9999
234 3583 9999
113 2987 10000
343 2202 9999
107 4531 10000
422 1597 9999
380 2758 10000
87 3217 9999
365 1160 10000
345 3308 10000
288 4782 9999
346 4997 9999
223 3508 10000
341 2008 10000
10 4455 10000
346 3357 9999
489 3355 10000
435 4218 10000
50 62 9999
492 3194 9999
362 647 10000
123 1749 9999
235 4153 9999
99 4230 10000
498 4654 10000
251 459 10000
245 1734 10000
42 2977 10000
377 1632 10000
97 3716 10000
308 3882 9999
200 2865 10000
24 842 10000
227 4286 9999
374 3595 10000
38 655 10000
129 4953 10000
107 4460 10000
355 4722 10000
48 2121 9999
166 2639 9999
96 432 10000
420 4482 9999
172 2319 10000
415 2055 9999
220 535 10000
475 4204 10000
453 4732 9999
180 2607 9999
164 4586 9999
453 4757 9999
337 3365 9999
453 1205 10000
206 1539 9999
21 64 10000
334 3260 10000
435 4065 9999
203 4770 9999
240 2716 10000
439 595 10000
190 4544 10000
157 3280 10000
178 4182 9999
380 3830 9999
77 2636 10000
311 1897 10000
118 370 9999
152 1595 9999
113 2838 10000
55 1113 10000
25 4370 9999
5 4545 9999
75 1449 10000
72 1175 10000
115 368 9999
108 4949 10000
279 1424 9999
415 2504 10000
106 4083 10000
280 3890 9999
231 4210 9999
315 2711 9999
356 1819 10000
393 1877 10000
369 1744 9999
437 1084 10000
491 1518 10000
485 3874 10000
437 4365 10000
454 4031 9999
151 2125 10000
327 1907 9999
96 4533 9999
409 2486 9999
20 3220 10000
257 1607 10000
429 3343 9999
355 2535 9999
37 453 10000
487 4733 10000
100 4867 10000
155 2659 10000
412 3287 10000
330 2773 9999
22 2089 9999
207 2130 10000
359 557 9999
150 535 9999
412 2126 10000
347 1332 10000
53 3285 9999
72 2743 10000
124 1796 10000
116 340 9999
80 1747 9999
375 3354 10000
27 4400 10000
129 985 9999
146 3666 9999
8 267 10000
260 4533 9999
120 1467 10000
307 3410 10000
249 1408 9999
295 4841 10000
186 3624 9999
38 2341 10000
363 3488 10000
307 2620 9999
451 466 10000
158 2568 9999
35 3931 10000
135 3691 10000
420 2334 9999
163 3409 10000
168 948 10000
339 820 10000
269 3071 10000
483 3391 10000
374 2370 9999
485 1397 9999
229 3869 10000
351 4890 9999
317 4019 9999
75 672 9999
61 1374 10000
320 1004 10000
62 2220 9999
308 3861 9999
195 2670 9999
351 2529 9999
340 373 10000
425 463 9999
351 2643 10000
446 3363 9999
249 1634 9999
113 2012 9999
198 2342 10000
81 1488 10000
95 3527 9999
243 2217 9999
402 1706 9999
162 232 10000
263 3895 10000
160 1075 9999
243 596 9999
214 1491 9999
105 2020 9999
15 2843 9999
73 3412 9999
482 4456 9999
251 1259 9999
229 4728 9999
125 441 9999
116 3791 9999
216 1428 10000
493 3254 9999
388 583 10000
65 1927 10000
338 639 9999
137 3588 10000
443 4431 10000
327 4951 9999
224 4507 9999
412 3287 9999
331 1934 10000
421 2261 9999
70 3595 10000
65 4322 10000
298 4929 9999
422 3522 10000
235 4174 9999
482 2326 9999
284 3173 9999
171 2847 9999
121 536 9999
416 1337 10000
15 2890 10000
344 1590 10000
202 2126 10000
388 4569 9999
330 2988 9999
493 3594 10000
6 1613 10000
320 3868 10000
126 4226 10000
394 3623 10000
98 4013 10000
291 1962 9999
462 2189 9999
215 2740 9999
27 306 9999
437 943 10000
134 354 10000
210 1430 9999
419 3361 10000
275 3774 9999
454 3610 10000
317 1403 9999
318 2317 10000
135 3692 9999
3 265 10000
329 2157 10000
38 4954 9999
158 4635 9999
319 4800 9999
295 3421 10000
99 3866 10000
299 1489 10000
313 4207 10000
278 569 10000
401 3028 9999
26 4920 10000
194 1545 9999
139 2127 9999
84 1497 9999
429 4312 9999
35 404 10000
40 3840 9999
266 1660 9999
340 4717 10000
345 3618 9999
330 1207 10000
499 3457 10000
285 4898 9999
112 4116 9999
121 4878 9999
356 4496 10000
465 1863 10000
308 4434 10000
485 2614 9999
25 1283 9999
308 2003 9999
71 2488 9999
37 3042 10000
412 3119 10000
360 971 9999
226 3139 10000
221 4659 9999
234 741 10000
476 2363 10000
210 2075 10000
452 526 9999
198 3802 9999
499 3374 9999
54 4014 10000
408 4892 10000
500 565 9999
412 2115 10000
287 3811 9999
499 3575 9999
375 644 10000
91 3560 9999
344 808 10000
404 1946 9999
21 242 10000
237 3547 9999
107 1034 9999
363 2910 10000
84 3128 9999
417 3236 10000
216 1749 9999
121 1944 10000
141 1595 10000
396 4597 9999
243 4680 9999
435 2230 9999
269 1705 9999
305 4898 9999
219 2582 10000
426 3322 10000
89 2201 9999
57 676 9999
184 4677 9999
86 4970 9999
194 4654 9999
271 3783 9999
149 4478 10000
208 2698 10000
380 4432 9999
117 1179 10000
298 4085 10000
71 4253 9999
345 3551 10000
1 1882 10000
110 2544 9999
386 741 9999
97 1397 9999
326 3639 9999
463 4330 9999
82 261 9999
484 1770 10000
112 3532 9999
297 1436 9999
77 503 10000
125 842 10000
27 4765 10000
178 4829 10000
231 3416 10000
289 2122 9999
392 1697 9999
160 3404 10000
235 1744 10000
363 2503 9999
129 4567 9999
158 2172 10000
22 4108 10000
234 1331 10000
108 2094 10000
394 1779 10000
110 193 9999
352 2675 9999
382 644 10000
148 2456 10000
55 2293 10000
147 2180 9999
289 4023 10000
251 1714 9999
432 3200 10000
183 648 10000
422 3981 10000
491 4649 9999
127 3038 10000
209 3775 10000
433 860 9999
270 3808 9999
256 4846 9999
204 1858 10000
302 1656 9999
446 4230 9999
97 4771 9999
299 2534 9999
467 2358 10000
275 2565 10000
164 1125 10000
378 2892 9999
217 3567 9999
160 2775 10000
66 795 10000
275 2554 10000
374 2130 10000
410 3483 10000
98 798 10000
215 1670 9999
413 4485 9999
228 2898 10000
493 956 9999
179 1595 10000
209 1907 9999
459 3959 9999
355 4689 9999
461 3947 10000
385 2865 9999
395 2762 10000
193 2303 10000
414 672 9999
469 892 9999
206 2037 10000
106 722 10000
180 2672 9999
465 2674 10000
163 3367 10000
227 723 10000
301 4660 10000
130 4686 10000
25 1428 10000
224 2269 9999
166 1064 10000
272 1125 10000
112 184 9999
464 3633 10000
317 1725 9999
90 475 9999
218 3566 10000
236 2442 10000
344 4360 10000
91 2863 9999
357 1091 9999
464 4070 9999
275 2138 9999
436 3759 10000
44 1819 9999
77 3136 9999
327 4517 9999
93 381 9999
498 2151 9999
144 2208 10000
245 3932 9999
384 4200 10000
10 921 10000
240 1485 9999
441 1745 9999
396 748 10000
215 2767 9999
82 3356 10000
398 849 10000
404 1892 10000
265 406 10000
347 1040 10000
327 1095 10000
432 3019 9999
310 3338 10000
357 1512 10000
187 3545 10000
383 4780 10000
23 3894 10000
165 4415 9999
137 1266 9999
419 687 9999
490 4091 9999
191 4575 10000
252 600 9999
268 4494 9999
106 1129 9999
375 1025 10000
323 3996 10000
379 2668 10000
337 3497 10000
362 4820 10000
240 1262 9999
75 1926 9999
309 4013 9999
123 3516 10000
443 4253 9999
45 4382 9999
422 2138 9999
10 4402 10000
1 4697 9999
321 4879 10000
386 1439 9999
140 2952 9999
47 573 10000
115 2036 10000
48 204 9999
207 4351 9999
12 3266 10000
306 1062 9999
495 4161 10000
276 2971 10000
459 823 10000
363 864 10000
310 4029 9999
479 4467 10000
151 4050 10000
334 1851 9999
110 3516 10000
2 4571 9999
374 3661 10000
78 4235 10000
247 4510 9999
270 2764 10000
81 3317 9999
494 4483 9999
476 4238 9999
253 2514 9999
114 3558 10000
81 3072 9999
47 2031 9999
468 1899 10000
83 3527 9999
251 2220 9999
357 2638 9999
313 2469 10000
101 3206 9999
254 2470 10000
375 4833 10000
296 816 10000
460 2346 10000
47 3989 9999
212 647 9999
330 3429 9999
457 1220 9999
383 3210 9999
358 4675 9999
217 4560 10000
417 3153 9999
248 1404 10000
377 2669 9999
171 1200 10000
35 2974 9999
272 2915 10000
384 4453 9999
99 3794 9999
56 1409 9999
107 1203 10000
451 2274 10000
499 906 9999
168 2363 10000
250 3599 10000
103 2632 10000
407 1210 9999
297 4486 10000
439 546 9999
244 275 10000
363 1255 9999
384 1007 10000
184 4130 10000
404 3624 10000
201 1134 10000
170 4532 9999
47 597 10000
167 3500 10000
362 3016 9999
188 567 10000
161 1687 9999
126 4744 10000
66 3040 9999
84 1199 10000
436 2327 9999
126 3893 9999
256 2456 9999
369 1964 9999
73 4978 9999
69 1042 10000
491 750 10000
68 316 10000
10 4246 9999
371 4992 9999
114 784 9999
380 2322 9999
404 2267 9999
432 4273 10000
102 3294 10000
362 413 10000
41 2007 10000
3 4464 10000
412 4089 9999
209 2002 10000
403 818 10000
135 606 9999
46 4836 10000
370 2941 10000
172 2104 10000
185 3281 10000
468 3296 9999
239 1050 10000
63 4100 10000
372 4256 9999
124 1562 10000
396 1186 10000
211 3897 10000
223 4315 10000
363 4486 10000
48 2811 10000
467 2578 10000
344 4316 9999
495 2204 9999
114 4471 10000
257 361 9999
405 1601 9999
407 4171 10000
304 531 9999
329 3567 9999
155 456 9999
238 1102 10000
404 3650 9999
303 4085 10000
316 963 10000
302 3815 10000
302 3302 9999
56 2303 10000
33 2533 9999
91 3412 9999
145 2129 9999
24 890 10000
214 3227 9999
300 2570 9999
118 2889 10000
164 1117 9999
485 4092 10000
62 3551 10000
374 3540 9999
91 1352 9999
108 4705 9999
403 3803 9999
176 4538 9999
488 2375 10000
341 1241 10000
66 960 10000
256 305 10000
347 4650 10000
424 1399 10000
295 851 10000
226 3967 9999
260 882 10000
324 1511 9999
300 4764 10000
487 4231 9999
427 1333 10000
242 3526 10000
21 3816 10000
134 2653 10000
144 2184 10000
110 3397 10000
496 3183 9999
269 3768 10000
398 2289 9999
60 443 10000
411 4673 9999
459 4568 10000
324 2757 9999
140 3241 10000
381 3750 10000
4 2255 9999
58 2650 9999
159 4773 10000
491 4087 9999
92 1919 10000
439 3763 10000
111 1964 9999
264 4070 9999
337 1452 10000
331 334 10000
399 1109 9999
308 2875 9999
483 3203 10000
364 1455 9999
102 148 9999
138 2785 9999
177 636 10000
150 4271 9999
228 3306 9999
51 3714 10000
315 2691 10000
44 1456 10000
297 4406 9999
273 2539 10000
390 1722 10000
3 3283 10000
431 1093 10000
341 2138 9999
204 2917 10000
50 3374 9999
403 636 9999
117 4274 10000
214 3741 9999
486 3812 9999
432 3558 10000
164 3638 9999
41 4006 9999
425 1354 10000
308 1072 9999
327 3812 9999
466 2071 9999
192 4660 10000
487 4979 9999
239 4005 9999
73 1584 10000
366 1102 10000
32 2994 9999
223 2655 10000
292 628 9999
486 888 9999
411 1907 9999
65 549 9999
411 2908 9999
354 4462 9999
325 2237 9999
134 3184 9999
475 2058 9999
220 4494 10000
240 3028 9999
306 2542 9999
331 499 9999
187 1188 9999
459 3406 10000
131 1407 9999
491 4346 9999
90 4945 10000
83 2474 10000
473 1836 9999
81 2789 10000
86 2708 9999
311 3950 9999
195 4420 9999
375 2922 9999
15 2640 9999
498 3150 9999
297 4788 10000
379 4194 9999
26 4613 9999
11 1485 10000
412 4928 10000
476 4079 9999
8 2504 9999
342 1773 9999
82 127 10000
490 2792 10000
269 3287 10000
55 1629 9999
340 2591 9999
489 812 9999
430 2920 9999
254 4431 10000
104 1441 9999
76 4724 9999
240 856 9999
300 2114 9999
311 485 10000
430 2004 9999
403 3537 10000
309 772 10000
278 3399 10000
36 180 10000
108 4729 9999
156 4438 9999
239 4542 10000
95 2155 9999
129 2105 10000
413 996 10000
273 2721 9999
118 4888 10000
342 2747 10000
202 2843 9999
456 1260 9999
2 4212 9999
111 303 9999
255 924 9999
232 238 9999
401 2695 10000
123 1497 9999
346 525 10000
332 516 10000
44 2995 10000
327 2718 9999
233 4991 10000
247 2030 10000
399 2715 9999
44 60 10000
375 914 10000
485 4898 10000
293 1654 10000
110 2086 10000
220 4383 9999
464 3844 9999
41 2501 9999
178 1810 9999
160 3914 10000
267 1473 9999
443 2488 10000
331 714 9999
159 893 9999
303 2252 10000
177 3293 10000
491 2236 10000
382 1721 10000
456 915 10000
40 2876 10000
378 2287 9999
122 4338 9999
36 1698 9999
21 2208 10000
66 2548 9999
413 541 10000
134 2458 10000
140 2953 9999
264 4547 9999
299 1975 10000
24 4632 10000
455 4169 10000
38 3401 9999
256 3986 10000
323 3075 9999
127 3127 9999
448 3763 10000
109 2723 10000
226 2320 9999
53 2249 10000
31 1378 10000
453 2821 9999
231 2738 9999
240 590 10000
449 2306 9999
358 657 10000
454 3315 10000
150 590 9999
202 1207 9999
16 2455 9999
415 4479 9999
151 4751 10000
479 4267 10000
463 4427 10000
151 3237 10000
47 4906 10000
29 4906 9999
400 4973 10000
425 1885 10000
439 3768 9999
276 3669 9999
167 1133 10000
63 624 9999
266 4416 9999
344 2943 10000
198 2893 9999
355 2029 9999
150 2129 10000
363 2862 9999
218 3649 10000
416 931 9999
450 2639 10000
2 3368 10000
414 1928 10000
380 3040 9999
164 3227 10000
125 4810 9999
392 4934 9999
461 1438 10000
17 361 9999
113 2862 10000
468 4764 9999
63 2380 9999
15 3282 10000
488 2911 10000
475 1955 9999
300 3333 9999
268 1028 9999
5 2722 10000
480 696 9999
346 1699 10000
446 1291 9999
123 3087 10000
264 362 9999
180 1727 9999
79 4234 9999
11 502 10000
170 1134 10000
382 2068 9999
332 728 10000
43 2093 10000
32 1230 10000
124 3191 9999
105 1369 10000
380 787 9999
240 3159 10000
483 2009 10000
455 4148 10000
275 3787 10000
25 4810 10000
305 3504 10000
497 724 10000
351 1370 10000
154 4615 10000
377 4166 9999
373 1485 9999
182 3218 10000
111 2274 10000
363 2698 10000
101 1271 10000
41 2120 9999
235 422 10000
17 4794 9999
255 1878 9999
3 1077 9999
94 930 9999
7 449 9999
430 2076 10000
193 1204 10000
357 633 10000
120 1859 10000
59 3139 9999
176 2061 9999
250 1996 10000
384 1508 10000
270 1183 10000
56 1023 9999
164 4983 10000
8 104 9999
289 2029 9999
476 1899 9999
360 397 9999
153 4144 10000
284 4758 9999
412 1777 10000
20 535 10000
181 1307 9999
348 2956 10000
192 3411 10000
407 3492 10000
353 1159 9999
80 4580 9999
454 2043 10000
416 2487 10000
60 1585 9999
43 1368 10000
443 3675 10000
498 4766 9999
202 3591 9999
138 3104 10000
89 1881 10000
324 4305 10000
7 2759 10000
256 2322 10000
319 2156 10000
410 1033 9999
58 2733 9999
129 3299 9999
456 2715 9999
84 2121 10000
239 4459 9999
13 1813 10000
488 4693 9999
477 1085 10000
389 1395 9999
137 229 9999
494 1417 10000
380 4740 10000
193 984 9999
130 2958 10000
457 4074 9999
379 2616 9999
464 4927 9999
229 681 10000
500 2907 9999
334 2547 9999
6 223 10000
54 2990 10000
339 2513 10000
203 1627 9999
69 1729 10000
184 4189 10000
28 536 9999
233 2599 10000
397 3913 9999
77 1348 9999
52 3921 9999
166 4086 9999
114 337 9999
193 3291 10000
313 4853 9999
384 1440 10000
145 258 9999
244 809 10000
400 2832 9999
392 1673 9999
317 1195 10000
482 1392 10000
59 235 9999
357 1213 9999
75 3903 10000
452 3675 10000
164 3101 10000
21 2538 9999
372 1439 9999
225 1182 10000
407 2609 9999
49 1707 10000
453 520 10000
239 883 9999
269 529 9999
102 2784 9999
309 1852 10000
101 4193 10000
339 2044 9999
32 4377 9999
56 1785 10000
488 1999 10000
3 4221 9999
254 1208 9999
213 1475 9999
64 1505 9999
85 162 9999
497 2484 9999
258 3119 9999
382 2857 9999
252 2995 10000
376 2281 10000
333 2241 10000
63 1180 9999
57 907 9999
23 892 10000
228 484 9999
370 2015 9999
87 4729 10000
233 3092 10000
112 1201 9999
88 4356 10000
420 711 9999
46 3798 9999
319 3939 10000
373 2863 10000
197 4079 10000
89 3443 9999
201 879 9999
233 2575 9999
123 386 9999
192 2690 9999
350 851 10000
236 2537 9999
400 715 9999
401 3529 9999
336 4524 9999
384 2776 10000
365 3287 10000
360 2510 9999
16 1476 10000
351 4228 10000
324 1978 9999
275 4655 9999
353 2253 9999
240 3272 10000
370 2279 10000
85 3241 10000
187 734 9999
139 2495 10000
37 4563 9999
9 2212 9999
109 4050 9999
310 2869 10000
489 1518 10000
248 3626 9999
438 2340 10000
320 3761 10000
283 4779 10000
441 4615 10000
33 684 10000
303 3582 10000
452 684 10000
217 1271 9999
252 497 10000
42 2173 9999
435 1488 10000
407 2631 9999
434 1843 10000
298 4456 10000
205 2721 10000
242 3265 9999
112 2142 9999
125 1576 9999
203 2498 10000
230 1378 10000
454 3307 9999
482 3015 9999
175 3251 9999
462 3237 9999
276 3131 9999
52 1518 9999
76 3736 10000
377 3069 9999
74 4348 9999
123 1846 9999
251 1462 9999
229 1289 9999
34 4807 10000
378 3678 9999
405 2931 10000
453 3984 9999
375 449 9999
426 2868 10000
399 1407 9999
390 4387 9999
463 3923 10000
464 521 10000
11 262 10000
139 3586 10000
225 4426 9999
216 4912 10000
183 4243 9999
142 4609 9999
39 3098 10000
386 4687 10000
193 2482 9999
297 4092 10000
457 2481 9999
376 3572 9999
174 486 9999
371 2452 9999
220 1153 10000
463 3981 10000
482 3828 9999
256 1601 9999
157 3060 9999
170 3567 9999
444 1222 9999
403 613 9999
51 4431 10000
470 1477 10000
381 2560 9999
96 1596 9999
73 572 9999
91 4633 9999
272 3596 9999
400 1741 9999
108 3716 9999
28 3868 10000
131 1304 9999
335 4372 9999
247 1748 9999
35 335 9999
333 2609 9999
383 1798 9999
306 4065 9999
246 3908 10000
346 2299 10000
362 4162 9999
210 3162 10000
469 976 10000
391 4850 9999
336 4323 9999
465 1002 9999
468 2801 9999
20 4278 10000
357 2358 9999
482 4590 9999
245 2758 9999
273 4944 9999
308 2992 9999
30 1715 10000
354 3222 10000
497 2766 9999
78 1090 9999
435 2937 10000
251 259 9999
427 3369 9999
100 3028 9999
64 3090 9999
338 1385 10000
193 2683 9999
190 4601 9999
128 2345 9999
83 2645 10000
180 2675 9999
446 2565 9999
442 792 10000
434 896 9999
484 4632 10000
361 3442 10000
180 4684 10000
58 4112 9999
130 642 10000
159 827 9999
32 786 10000
303 3544 9999
73 2955 9999
404 1273 9999
16 3379 10000
354 442 9999
38 4077 10000
295 1058 10000
97 3939 10000
69 4782 9999
107 1120 10000
7 2001 10000
494 1766 9999
114 3472 10000
482 3312 10000
336 3708 9999
278 4669 9999
259 3650 10000
28 4375 10000
258 3731 9999
202 4940 10000
415 4634 10000
301 3348 9999
422 3751 10000
450 2069 9999
341 707 10000
235 4485 10000
416 3775 10000
3 376 10000
73 1258 10000
334 1345 10000
66 2033 9999
236 607 9999
82 2356 9999
216 1709 9999
31 4283 9999
40 910 10000
202 2309 9999
129 1011 9999
435 2245 9999
391 610 10000
149 2924 9999
107 2207 9999
174 4793 9999
25 3744 10000
37 39 10000
247 3688 9999
302 4402 9999
368 3221 10000
296 419 9999
19 4090 9999
221 3936 9999
90 3751 10000
90 1554 9999
280 1050 9999
321 962 10000
253 1284 9999
61 1218 9999
461 4644 9999
319 1992 10000
111 2544 10000
373 4033 9999
354 611 10000
168 910 9999
121 2142 10000
300 3104 10000
383 1757 10000
40 3286 10000
10 4553 10000
493 4817 9999
198 2998 10000
333 3703 10000
463 2231 10000
433 692 9999
87 160 10000
14 1289 10000
77 1353 10000
237 3593 9999
499 2975 9999
156 4986 10000
157 3060 10000
225 2432 9999
500 3091 9999
176 4533 10000
135 3894 10000
249 3261 9999
182 2336 10000
134 3683 9999
197 4739 10000
69 1496 10000
51 1520 10000
419 3142 9999
81 4722 10000
303 1259 10000
363 1555 10000
103 4763 10000
328 735 10000
263 1182 10000
24 647 10000
202 2764 9999
67 2949 9999
363 2248 9999
392 3720 9999
268 4815 10000
223 629 9999
441 3220 9999
417 3920 9999
455 3631 10000
308 1642 9999
351 684 9999
236 1269 9999
296 1223 10000
340 699 10000
44 2411 9999
425 773 10000
337 1547 10000
255 1233 10000
457 1463 10000
132 4847 9999
439 3885 10000
388 861 9999
157 3941 9999
132 4573 9999
43 3399 9999
61 4071 10000
392 3516 10000
91 4966 10000
467 691 9999
258 3672 10000
259 2953 10000
412 3987 10000
142 3084 10000
443 3577 10000
73 2972 10000
64 3707 9999
362 4259 9999
229 522 9999
293 4962 9999
455 1325 10000
474 3068 9999
313 3862 10000
39 94 9999
15 2029 9999
206 565 9999
282 2112 10000
308 4608 10000
99 868 10000
45 4086 9999
100 2885 10000
151 4210 9999
472 4162 10000
220 3778 9999
384 4729 9999
165 4438 10000
190 464 9999
331 1793 9999
257 286 10000
253 3524 10000
133 161 9999
193 2239 9999
421 4762 10000
326 450 9999
469 3213 9999
207 2052 9999
28 2375 9999
156 3840 10000
457 4777 9999
359 2149 10000
119 4617 10000
446 3176 9999
153 4080 10000
425 3067 9999
247 4686 9999
349 1735 9999
155 1390 9999
100 639 9999
350 4169 9999
191 651 9999
364 2846 10000
446 4411 9999
159 2463 9999
206 4455 9999
465 3262 10000
482 1178 9999
37 3172 9999
497 2744 10000
151 2901 9999
3 1908 10000
57 277 9999
92 3268 9999
407 3072 9999
131 879 9999
312 784 9999
41 949 9999
486 2325 10000
481 4832 10000
352 4342 10000
168 4720 10000
456 1945 10000
140 3691 9999
184 1740 10000
305 1361 10000
485 2808 10000
22 3638 10000
404 3424 10000
393 3750 10000
357 3199 10000
210 462 10000
202 2399 10000
103 1190 9999
166 2518 10000
382 2151 9999
147 2722 10000
192 4850 10000
82 942 10000
328 1540 9999
55 3816 9999
278 1454 9999
247 1857 10000
372 4653 9999
418 4883 9999
175 4405 10000
41 3192 9999
162 3097 10000
55 3394 9999
278 2992 10000
196 4892 9999
73 1904 9999
456 4260 10000
482 1743 9999
392 2347 10000
189 3543 10000
246 4156 9999
462 2851 10000
159 2451 10000
113 2296 9999
188 3955 9999
316 1180 9999
349 2716 9999
194 3476 9999
343 3424 10000
345 2387 9999
72 3242 9999
484 781 10000
210 936 10000
39 1823 9999
357 4979 10000
202 3383 9999
268 4864 10000
333 2444 10000
132 3471 10000
131 4650 9999
207 4630 9999
418 2249 10000
359 3858 10000
421 4550 10000
327 574 10000
355 1255 10000
425 2922 10000
198 3089 10000
254 1823 10000
432 480 9999
435 1494 10000
216 3846 9999
411 1063 9999
148 1445 9999
72 1800 9999
357 4242 10000
207 280 10000
466 2057 10000
183 3009 9999
491 4110 10000
235 1311 10000
372 1787 9999
309 3900 9999
497 1075 9999
17 792 10000
367 1373 9999
304 863 10000
449 2345 9999
144 4052 9999
144 3193 10000
415 1010 10000
492 527 10000
225 504 9999
79 2489 10000
233 4043 10000
37 68 10000
218 2090 10000
186 4575 10000
413 793 9999
189 635 9999
323 3694 10000
335 4036 10000
355 3177 10000
178 2508 10000
481 1413 9999
389 1703 10000
220 1901 9999
5 1948 10000
457 3465 9999
97 3162 9999
383 4838 9999
28 668 10000
442 973 9999
485 1774 10000
273 2764 10000
100 3835 9999
288 1724 9999
114 3872 9999
164 2498 9999
345 743 9999
472 2671 9999
86 2324 10000
249 946 10000
231 2891 10000
468 1624 9999
317 4261 10000
100 2185 9999
300 4838 9999
473 3110 9999
155 1991 10000
283 1667 9999
304 3065 10000
348 4903 9999
122 2371 10000
108 4662 9999
339 3010 10000
449 2584 9999
393 2845 9999
177 3042 9999
284 1524 9999
93 3737 10000
403 1005 10000
281 4740 10000
284 3437 10000
451 4125 10000
465 2116 9999
145 1308 9999
270 4875 9999
314 1505 9999
445 2784 10000
142 3822 10000
64 525 9999
318 4396 10000
181 1542 9999
13 674 10000
232 1439 10000
314 1364 9999
174 1019 10000
361 3211 9999
55 3075 10000
455 2832 10000
78 390 9999
46 3017 10000
21 1997 10000
427 4453 10000
443 2216 10000
58 4793 10000
477 3162 9999
205 816 10000
157 4057 9999
158 483 9999
420 2554 9999
227 2483 10000
207 2158 9999
499 4483 10000
484 2715 9999
382 3149 9999
22 2009 9999
266 3390 10000
308 1084 10000
473 4766 10000
236 1973 10000
92 3993 10000
92 4231 9999
355 3204 10000
71 4246 10000
178 4480 9999
332 4607 10000
308 4854 9999
40 2856 10000
193 2740 10000
202 4095 10000
193 2134 9999
76 1596 9999
227 3319 10000
241 894 9999
191 1742 10000
25 447 9999
448 1245 10000
98 4381 10000
226 4728 9999
156 2707 9999
59 4446 10000
85 2593 10000
156 4538 9999
159 227 9999
439 2516 9999
366 4012 10000
273 3421 9999
478 3505 10000
44 4877 9999
118 3484 10000
139 3159 10000
51 1622 9999
261 1796 10000
423 3689 9999
36 1390 10000
233 3597 9999
237 3384 10000
385 1111 10000
49 3758 9999
143 1402 9999
397 2387 9999
440 2364 10000
176 4946 10000
375 2190 10000
216 4479 9999
159 4493 9999
389 1300 9999
187 1552 10000
415 2119 9999
478 3467 9999
11 3530 10000
240 564 10000
274 1314 9999
256 1607 10000
293 3122 10000
382 496 10000
171 631 9999
315 4364 10000
212 973 10000
433 2994 10000
401 948 10000
293 4169 10000
271 1735 10000
476 1496 9999
330 3139 10000
383 559 9999
468 4133 9999
207 734 10000
309 1322 9999
463 1059 10000
211 3001 9999
333 3505 10000
41 2193 9999
55 2782 9999
454 1112 10000
96 2095 10000
430 3720 9999
47 3862 9999
401 4913 9999
418 4683 10000
323 1804 9999
196 472 10000
150 515 9999
263 1630 10000
449 3725 10000
251 545 9999
29 1493 10000
33 3961 10000
196 298 10000
321 3982 10000
349 2089 9999
318 3403 9999
484 2944 9999
496 2716 9999
337 3291 10000
467 3824 10000
78 3396 9999
461 644 9999
361 3880 10000
449 688 10000
299 2496 9999
346 1533 10000
442 4948 10000
378 4094 10000
121 284 10000
432 3493 10000
498 2392 10000
352 3753 9999
336 2772 10000
450 1755 10000
6 4154 10000
381 4049 9999
324 3373 10000
441 4491 10000
377 4277 9999
231 3150 10000
240 2217 10000
210 3914 10000
260 597 9999
55 1567 10000
214 4773 10000
263 566 9999
370 1754 9999
390 3510 10000
9 3257 10000
153 1354 10000
413 4575 10000
13 1958 9999
334 3943 9999
500 1560 10000
205 4975 10000
65 2914 9999
498 1414 10000
144 3152 10000
274 4841 9999
141 2566 9999
40 885 9999
310 1811 10000
14 4574 10000
374 1032 9999
499 3371 10000
474 2228 10000
131 2090 9999
402 1724 9999
349 1716 10000
439 4038 10000
12 3733 10000
480 1998 10000
63 2527 9999
14 4828 9999
249 2565 9999
127 2501 9999
187 4714 9999
84 162 10000
481 2361 10000
126 594 10000
158 624 9999
426 2287 9999
91 561 10000
108 4826 9999
236 1159 10000
246 3794 9999
36 4159 10000
145 4802 10000
45 1781 10000
468 1764 10000
272 3663 9999
353 946 9999
136 4395 9999
40 3674 9999
166 3570 9999
245 753 9999
334 1469 9999
13 2567 9999
484 1961 10000
13 637 9999
274 2171 9999
468 1259 10000
76 577 10000
435 2864 9999
444 950 9999
428 3285 10000
479 4702 10000
404 3811 10000
369 2703 10000
289 694 9999
281 2215 9999
286 1827 10000
371 3699 10000
500 988 10000
77 2067 9999
206 3771 10000
281 3547 10000
61 3903 9999
495 3413 9999
441 3632 9999
100 2769 10000
283 1892 9999
129 614 9999
173 3642 10000
178 901 9999
14 2834 9999
295 1981 10000
75 1649 10000
153 3490 10000
280 408 10000
352 3353 10000
348 3587 10000
112 629 10000
203 1148 9999
44 2826 9999
66 2294 10000
82 4821 10000
115 1257 10000
125 2133 9999
314 1418 9999
10 1462 9999
174 4715 9999
400 3039 10000
33 390 10000
416 3477 10000
102 3604 9999
478 3570 9999
239 3925 9999
317 3255 9999
479 4830 10000
130 2399 9999
92 4704 9999
76 3578 9999
2 2945 10000
191 4592 10000
99 4784 9999
175 4755 9999
447 2012 9999
302 587 10000
8 736 10000
490 3583 10000
73 3726 9999
451 2746 9999
172 4019 10000
185 2618 9999
347 3164 9999
261 2362 10000
234 1828 10000
203 1109 10000
78 1635 10000
69 2626 10000
121 132 9999
64 4348 9999
385 4275 9999
256 3310 9999
309 3947 9999
116 3603 10000
321 4737 10000
486 2762 9999
293 2499 10000
360 4312 10000
427 2383 9999
364 3951 10000
6 4944 9999
167 4877 9999
205 4306 10000
235 1709 9999
323 867 10000
249 3071 9999
416 3348 9999
353 2160 9999
173 4606 9999
35 183 9999
71 3158 9999
208 2289 10000
425 2674 9999
439 3748 9999
374 4524 10000
349 4709 10000
423 1952 10000
256 1970 9999
335 2403 10000
242 2513 9999
175 177 9999
195 3357 9999
213 2431 10000
437 2705 9999
156 4281 9999
220 4850 10000
482 1684 9999
134 1751 10000
186 4844 9999
90 3640 9999
489 3400 10000
450 4689 9999
315 4701 10000
13 4009 9999
302 4564 9999
101 4122 10000
51 1265 9999
181 1106 10000
289 1340 10000
402 1849 9999
451 2291 10000
138 4780 9999
148 2787 9999
143 1745 9999
357 4514 9999
331 2996 9999
56 2609 9999
239 2881 9999
15 3046 9999
369 1247 10000
427 467 9999
470 3940 10000
167 229 9999
413 3805 9999
493 3465 9999
50 990 10000
239 3628 9999
498 4646 9999
91 718 9999
271 4255 9999
259 1240 10000
18 4477 10000
156 4851 10000
192 3726 9999
95 1132 10000
356 1549 10000
297 4118 9999
21 1063 10000
179 1933 10000
357 1814 9999
193 3658 10000
466 3000 9999
274 2617 9999
366 3681 10000
148 2144 9999
275 4453 10000
342 2958 9999
216 2693 10000
493 4298 9999
488 3514 9999
3 4640 10000
374 4125 9999
437 2409 10000
383 3812 9999
241 2678 9999
262 3819 10000
66 3750 10000
185 4981 9999
474 3599 10000
279 3538 10000
123 356 9999
241 3154 10000
458 3965 10000
210 945 10000
294 2361 9999
203 3864 10000
25 4137 9999
161 3334 10000
153 4831 9999
255 1082 9999
59 3009 10000
383 417 9999
226 2325 10000
85 317 10000
269 3039 10000
267 1471 10000
135 4282 10000
374 1705 10000
208 4067 9999
66 1272 10000
264 4947 10000
258 4996 10000
138 243 9999
320 3843 10000
55 3803 10000
421 1902 10000
269 1753 9999
57 3408 10000
128 610 9999
465 2507 10000
189 839 10000
352 4029 9999
143 1207 9999
250 4149 10000
209 813 10000
76 3329 9999
453 4839 10000
92 4497 10000
23 274 10000
267 1650 9999
44 713 10000
24 4551 10000
231 4769 10000
117 132 9999
400 3755 10000
115 909 9999
401 1416 9999
230 1398 10000
101 3432 9999
195 4601 9999
91 4590 10000
417 680 10000
164 2061 10000
419 681 9999
478 4023 10000
205 2274 9999
310 1611 10000
358 3914 9999
227 1262 10000
405 1734 10000
325 1333 10000
385 1665 10000
147 4501 9999
12 2069 9999
241 4690 10000
415 4159 10000
182 3243 9999
141 201 9999
203 3810 10000
92 4449 10000
391 3657 9999
338 4332 10000
162 1172 10000
356 1418 9999
61 1820 9999
444 2996 9999
231 4894 9999
310 2389 10000
458 2290 10000
343 1910 9999
209 464 9999
29 39 9999
482 4271 10000
136 990 9999
65 1079 9999
388 1185 9999
467 2473 10000
35 538 9999
124 1879 9999
235 2151 10000
112 4479 10000
28 2979 9999
478 1478 10000
322 954 10000
411 2545 9999
493 4431 10000
150 1410 10000
464 1287 9999
266 2786 10000
468 3252 9999
101 3083 9999
310 4006 10000
379 3944 9999
430 3312 9999
353 1168 9999
51 4473 10000
471 716 9999
142 3338 9999
451 4884 10000
331 4433 10000
216 3772 9999
271 402 9999
228 1072 10000
165 2903 10000
214 1527 9999
342 1328 10000
487 4109 9999
324 4195 9999
115 3491 10000
42 3568 9999
128 4611 10000
358 2601 9999
138 3101 10000
458 2806 9999
407 2832 10000
131 1410 10000
325 1434 9999
328 3241 9999
186 1204 10000
100 727 10000
5 861 10000
313 3469 9999
384 4173 9999
33 1576 9999
7 2003 9999
281 836 10000
156 2046 10000
387 1845 9999
67 3306 10000
236 1181 9999
488 1307 10000
249 3845 9999
169 2123 9999
308 4779 9999
353 1428 9999
45 1878 10000
209 969 10000
29 3876 9999
376 4401 9999
72 2865 10000
177 2734 10000
260 1318 9999
168 1769 9999
153 3777 10000
231 3771 10000
302 2286 9999
207 2488 10000
37 1794 10000
152 3275 9999
310 4438 10000
409 918 9999
143 4466 9999
409 4347 10000
245 2746 10000
493 753 10000
244 3283 9999
449 1009 10000
116 979 10000
252 2697 9999
288 2467 9999
238 4968 10000
13 3826 9999
468 1761 9999
171 1316 9999
414 2477 9999
82 2747 9999
176 3124 9999
211 1349 9999
347 1419 10000
50 3789 9999
240 1874 9999
369 1061 9999
483 2971 9999
443 3515 10000
18 2449 10000
38 3750 10000
166 4645 10000
304 366 9999
56 2408 10000
289 1565 9999
198 1908 10000
387 2919 9999
173 2296 10000
221 4844 9999
445 1445 9999
351 4337 10000
364 3945 9999
79 2652 10000
396 1740 10000
497 1898 9999
344 894 9999
321 3397 10000
125 576 9999
469 4642 10000
163 1810 10000
461 2582 9999
388 724 10000
256 4082 9999
176 3782 9999
469 4972 9999
125 3588 9999
303 1651 10000
419 1436 10000
345 607 10000
319 2030 10000
493 2886 10000
479 1068 10000
341 2934 10000
88 4445 9999
42 4333 9999
102 4304 10000
5 3130 9999
335 1027 10000
324 1991 9999
362 3827 9999
480 3501 9999
237 4773 10000
218 2074 10000
488 4696 10000
468 4232 10000
73 3076 9999
206 2509 9999
4 4912 10000
384 3280 9999
66 4275 9999
172 645 10000
313 1358 9999
420 965 9999
338 2931 10000
301 4779 9999
268 3764 9999
392 2040 9999
145 3134 9999
316 663 10000
488 1926 10000
79 4059 10000
343 724 10000
60 4524 9999
189 2262 9999
150 927 10000
497 2416 9999
295 4446 10000
292 4361 9999
453 3289 9999
32 1696 9999
391 4200 10000
114 2427 10000
42 1271 9999
26 4436 10000
499 4662 10000
170 1540 9999
240 4968 9999
341 1491 9999
474 3863 9999
42 2330 10000
294 1690 9999
16 4971 9999
498 1779 10000
226 2189 10000
185 4593 9999
113 3069 10000
463 2830 9999
242 2071 9999
344 3836 10000
496 2300 10000
356 372 10000
90 1236 9999
97 3223 9999
189 1089 10000
97 1013 9999
422 3788 10000
292 4085 9999
5 4657 9999
417 4059 9999
452 1631 9999
230 2238 10000
198 267 9999
349 707 10000
291 733 9999
324 756 9999
137 1791 10000
359 2525 9999
38 2047 9999
10 3701 10000
215 2774 9999
473 3131 9999
231 4284 9999
313 1875 9999
399 878 9999
488 3603 9999
99 2042 10000
69 968 10000
1 2580 9999
307 4616 9999
297 3673 9999
474 4643 10000
226 3456 9999
441 3144 9999
341 1951 10000
500 2639 9999
350 2345 9999
327 1237 10000
209 3195 9999
383 2103 9999
139 3508 10000
77 3873 10000
48 2364 10000
306 1541 10000
139 2302 10000
381 3764 10000
104 2086 10000
228 1874 9999
113 4041 9999
34 1249 10000
401 2206 10000
480 1735 10000
208 1904 9999
272 4481 10000
370 4166 10000
431 3767 10000
247 3656 9999
329 1325 9999
474 2966 10000
365 1314 9999
300 1871 10000
41 722 9999
315 3574 9999
62 2220 10000
370 4775 10000
257 3476 9999
388 2480 9999
390 4639 9999
447 1539 9999
6 3144 10000
97 4131 10000
375 4957 9999
420 3940 9999
181 357 9999
56 4095 10000
186 1189 9999
190 2770 10000
399 4256 10000
360 3243 10000
53 2726 10000
22 4234 10000
369 4674 9999
450 3794 9999
285 3536 9999
169 590 10000
2 4136 9999
301 2820 10000
464 1496 9999
445 1473 10000
168 3789 10000
65 664 9999
361 1406 9999
153 1307 9999
144 4462 10000
32 1527 9999
188 3279 9999
465 3471 10000
229 2001 10000
152 3210 9999
253 1800 10000
95 4642 9999
275 4565 9999
265 4021 10000
238 684 9999
139 4256 9999
338 3708 10000
291 1516 10000
140 726 10000
487 4490 9999
258 393 10000
290 3247 9999
490 2980 10000
46 3136 10000
86 1963 10000
325 2402 10000
42 2549 10000
101 2317 10000
371 1180 9999
407 3289 9999
157 4122 9999
370 2783 9999
98 1717 9999
452 3921 9999
408 2451 9999
414 3726 10000
219 2526 10000
239 3621 9999
414 2622 9999
305 2404 9999
315 1871 9999
187 667 9999
218 4470 10000
419 2113 9999
232 998 9999
282 1989 9999
267 2624 9999
470 2416 9999
320 1745 9999
82 127 10000
210 4104 9999
155 3169 10000
339 4846 10000
413 2593 10000
497 4943 10000
431 2680 10000
131 1342 10000
404 3887 9999
157 993 10000
155 811 9999
309 1135 10000
24 2101 10000
41 1250 10000
429 3739 9999
449 4873 9999
364 4319 9999
450 3313 9999
279 4711 10000
36 4088 10000
259 2554 9999
13 4201 10000
447 3828 9999
190 1578 9999
345 4950 10000
275 3555 10000
128 3675 9999
217 2646 9999
364 3829 9999
489 4389 9999
200 3201 9999
163 356 9999
495 2991 9999
80 2006 10000
122 3879 10000
216 1102 9999
17 214 10000
220 2475 10000
119 3643 9999
169 3883 9999
466 1606 9999
223 1919 9999
279 3517 10000
417 2351 9999
287 655 10000
306 4250 9999
348 3609 9999
171 422 9999
340 2836 10000
407 2780 9999
4 537 10000
399 1114 10000
495 3422 10000
16 610 10000
360 585 9999
414 902 9999
396 632 9999
288 4033 9999
416 3323 10000
230 1889 9999
47 4749 10000
210 717 10000
70 4796 10000
334 437 9999
198 4093 9999
105 2034 9999
106 1262 9999
110 470 10000
217 1862 10000
243 451 9999
25 1951 9999
380 3037 9999
16 2062 10000
140 3193 9999
357 1228 9999
482 2054 9999
82 4304 9999
89 4615 9999
95 4686 9999
16 1862 10000
336 2175 9999
169 4173 10000
478 3260 9999
39 3288 10000
31 1790 10000
130 4491 9999
60 4953 9999
307 3753 9999
116 4970 10000
445 2243 9999
347 3818 9999
417 1359 10000
287 578 9999
236 3775 10000
12 1991 9999
199 1974 10000
344 1925 9999
329 1645 9999
169 2311 10000
102 4323 10000
419 2191 10000
64 3335 9999
118 2817 10000
266 2616 9999
452 4134 10000
488 1126 9999
398 618 10000
158 4592 10000
92 1567 9999
254 4256 9999
445 5000 9999
215 1891 10000
365 1666 9999
31 246 10000
184 2334 9999
294 1838 9999
322 646 9999
100 4092 10000
358 715 9999
186 1449 10000
319 3963 10000
311 781 10000
170 1091 9999
120 4788 10000
443 1190 9999
295 1177 10000
30 3051 10000
498 3207 9999
283 4209 10000
412 1756 10000
82 963 10000
323 4268 9999
444 4207 9999
303 3141 9999
103 1957 9999
31 3986 10000
476 4355 9999
72 3341 10000
93 1597 9999
356 935 9999
6 2411 10000
428 2416 9999
459 1446 10000
51 1328 9999
296 1037 9999
283 1955 9999
216 2279 9999
26 2982 9999
244 3957 9999
466 3799 9999
205 1905 9999
226 2379 10000
317 1980 10000
430 3576 9999
48 4858 10000
207 1387 9999
388 3697 9999
17 2655 10000
157 4728 9999
61 188 9999
397 702 9999
31 3989 9999
239 2097 10000
181 940 10000
72 87 9999
339 511 9999
197 960 9999
254 1405 9999
464 4326 9999
46 1007 10000
113 199 9999
56 4347 10000
420 1247 10000
460 2036 10000
99 4000 9999
481 1477 10000
483 2095 10000
495 870 10000
289 2085 10000
247 1016 10000
314 3715 9999
122 3075 10000
486 846 10000
189 3202 9999
460 3163 9999
474 4445 10000
64 1254 10000
359 1090 10000
467 4346 9999
98 3527 10000
80 2843 10000
78 172 10000
197 3985 9999
61 2478 9999
94 4145 9999
180 4126 9999
387 2896 10000
231 650 9999
233 391 10000
257 4087 9999
22 1410 10000
475 4638 9999
88 4375 9999
99 4542 9999
172 3274 10000
85 100 9999
152 1245 10000
19 3196 9999
463 3896 9999
223 4878 9999
63 1797 9999
442 4234 9999
484 2406 10000
162 184 9999
231 786 10000
52 332 9999
231 272 9999
401 1931 9999
203 3893 9999
268 4883 9999
488 1808 10000
2 434 10000
22 4484 9999
313 1286 10000
382 2138 10000
436 3682 10000
63 647 9999
125 144 9999
157 551 10000
201 2318 10000
124 905 9999
395 4988 9999
91 3945 9999
468 3729 10000
156 3489 9999
249 1780 9999
182 814 9999
432 2692 9999
319 927 9999
295 2955 10000
420 1323 10000
218 3897 9999
248 674 10000
58 1420 10000
314 4617 10000
366 2255 10000
308 2865 9999
471 2202 9999
421 915 10000
349 823 9999
9 1559 9999
19 237 10000
288 574 10000
51 4717 9999
261 1208 9999
349 1107 9999
323 4496 9999
31 2790 10000
464 734 10000
176 1918 10000
69 1055 9999
201 932 9999
444 3644 10000
300 1008 9999
183 1654 10000
368 888 10000
471 1376 9999
332 372 9999
414 2380 10000
9 794 10000
490 630 9999
288 1417 10000
51 4635 9999
474 940 10000
281 4713 9999
500 1269 10000
366 389 10000
80 4365 9999
230 3256 9999
106 2191 10000
112 801 9999
313 3804 10000
45 2689 10000
184 4949 10000
219 1877 10000
471 4881 9999
182 244 10000
471 2702 10000
353 2900 9999
276 4725 9999
175 745 9999
451 1678 9999
475 3255 10000
82 708 10000
46 607 9999
11 4771 10000
165 639 10000
212 3908 10000
476 2945 9999
64 3780 9999
302 1176 9999
43 3946 10000
138 1039 10000
471 729 9999
163 2637 9999
185 966 10000
79 4448 10000
291 540 9999
77 2405 9999
322 3005 9999
213 4096 10000
194 451 10000
15 759 9999
324 2945 10000
338 772 9999
112 2624 9999
11 2617 9999
18 502 9999
277 3641 10000
409 4456 10000
257 2501 9999
95 3877 10000
499 4912 10000
495 2139 9999
85 1818 9999
474 2434 10000
463 1249 9999
231 4408 10000
489 3449 9999
118 197 10000
453 4239 10000
27 1770 9999
160 3168 9999
235 2952 9999
283 3432 9999
103 4818 10000
55 3366 9999
482 4258 9999
497 2410 9999
308 2278 9999
417 4321 9999
273 4694 10000
51 1000 9999
146 4820 9999
398 2308 9999
5 3393 9999
366 3836 10000
37 4161 10000
141 1593 9999
87 3880 9999
470 921 9999
1 588 10000
96 484 10000
279 3478 10000
314 800 10000
174 4045 10000
356 2633 9999
203 2404 9999
181 2353 9999
254 2519 9999
20 633 10000
270 4307 9999
100 4922 9999
426 3273 9999
417 3242 9999
196 3981 10000
484 660 10000
244 2450 10000
21 2633 9999
366 655 9999
32 3508 10000
354 4810 9999
482 949 9999
373 3874 9999
232 2509 9999
239 1518 9999
207 464 9999
292 2558 9999
371 850 9999
433 1522 10000
337 2117 9999
11 4435 10000
314 3996 9999
437 4902 9999
272 2093 10000
219 1546 9999
345 3116 9999
29 3925 10000
429 616 10000
282 1015 9999
97 4711 9999
338 1635 10000
61 1388 9999
241 911 9999
303 2266 10000
44 2788 10000
167 2253 9999
390 4101 10000
113 912 10000
486 1726 10000
396 1342 10000
160 3339 10000
215 4411 9999
239 1017 9999
310 3942 10000
287 2786 10000
324 3148 10000
347 3824 10000
309 2556 10000
440 832 9999
209 2680 9999
129 3606 9999
485 4868 10000
152 4840 10000
43 3306 10000
140 4535 9999
73 3113 10000
80 218 9999
132 937 9999
421 2619 9999
303 1892 9999
220 3615 10000
182 3194 9999
179 1322 10000
232 1949 10000
108 580 9999
454 4404 9999
37 4593 10000
218 1422 9999
485 3500 9999
280 1772 9999
476 2671 10000
410 3361 9999
28 658 9999
216 4647 9999
60 3666 10000
66 1213 9999
395 4889 10000
362 2577 10000
396 3070 9999
150 1169 9999
88 4248 10000
337 1090 9999
442 2049 9999
325 2260 10000
227 3518 10000
499 1534 10000
96 367 9999
362 3877 10000
432 2284 9999
233 2653 10000
497 4679 9999
398 523 9999
303 2345 10000
320 702 9999
264 3025 10000
192 3918 9999
279 2638 9999
9 1985 10000
181 1583 9999
470 3083 9999
309 1449 9999
396 851 9999
345 1191 10000
286 3890 9999
154 2656 10000
451 4675 10000
280 507 9999
89 4612 9999
412 2286 10000
251 2187 10000
427 4155 9999
113 3096 10000
319 3314 9999
87 3794 10000
476 1324 9999
355 2777 9999
319 606 9999
185 447 10000
482 4738 9999
108 3409 10000
403 4195 9999
147 3591 9999
157 3059 9999
160 2818 9999
498 3012 10000
231 2658 10000
324 3125 9999
214 464 9999
413 3536 10000
63 2044 10000
88 780 10000
358 364 9999
432 3719 9999
125 2358 10000
219 4113 9999
145 2523 9999
173 1441 9999
149 4624 10000
354 3017 9999
404 1570 10000
119 2715 9999
303 4736 10000
480 3501 10000
241 1102 9999
20 3198 9999
298 2974 10000
230 2914 9999
361 3695 9999
404 4871 10000
112 3594 9999
32 4412 9999
279 4619 9999
210 3770 10000
28 1027 10000
126 1409 10000
275 4231 9999
286 2106 10000
56 3713 10000
391 3556 10000
187 3581 10000
467 2575 9999
443 4226 9999
70 1245 9999
83 401 9999
494 4793 9999
247 1766 9999
452 4487 10000
297 4233 10000
424 1037 9999
71 3462 9999
432 3428 9999
355 871 9999
387 4039 10000
15 4770 9999
151 1996 9999
292 3268 9999
429 3512 9999
230 4199 9999
356 608 10000
64 268 9999
94 3577 9999
35 3579 10000
133 3522 10000
193 1865 9999
311 4512 9999
490 2516 10000
301 2665 9999
206 4122 10000
180 1366 10000
61 611 9999
438 3958 9999
208 1751 10000
235 2150 10000
113 4548 9999
495 4117 10000
183 2283 10000
358 4963 9999
428 3047 10000
307 2073 9999
466 1965 10000
168 3579 10000
304 2178 9999
140 2948 10000
382 461 9999
294 2321 10000
261 2995 10000
179 4208 10000
245 430 9999
401 3266 10000
190 300 10000
214 2522 9999
372 3876 9999
257 1170 10000
53 477 10000
73 214 9999
290 1674 9999
471 3306 9999
43 3145 9999
77 4728 9999
249 455 10000
352 586 9999
363 1893 10000
477 2321 9999
470 976 10000
238 3634 9999
451 1959 10000
68 2477 10000
485 4866 10000
361 408 10000
268 563 9999
398 2639 10000
208 1905 9999
481 2446 9999
477 4510 9999
450 3156 10000
270 726 10000
209 2481 9999
214 4594 10000
367 2075 10000
163 2767 10000
446 1448 9999
438 1853 9999
468 3067 9999
276 1201 10000
105 2140 10000
215 4801 9999
241 849 9999
113 603 9999
187 585 10000
369 2111 9999
362 2044 9999
38 630 9999
237 2679 9999
269 4797 9999
23 2787 10000
204 4343 10000
153 4021 9999
321 3231 10000
298 4400 9999
68 456 9999
113 3912 10000
422 1780 9999
226 4783 10000
77 2602 9999
428 2168 10000
323 1147 9999
493 3671 10000
82 551 9999
92 2720 10000
28 4076 10000
31 1646 10000
439 4872 10000
432 2468 10000
397 848 9999
255 306 10000
114 1709 9999
477 4624 9999
387 2687 9999
354 1846 9999
244 4774 9999
347 1243 9999
147 1782 10000
123 971 10000
402 456 10000
38 4752 10000
228 2136 10000
2 3303 10000
322 1269 10000
376 3633 10000
316 1291 10000
471 4879 9999
345 4428 10000
238 958 9999
382 2142 9999
112 3314 10000
25 1648 9999
25 802 9999
201 733 10000
1 4985 10000
241 3730 10000
81 1186 10000
156 2375 9999
38 808 9999
21 857 10000
477 1058 10000
173 4568 9999
434 1268 10000
185 2426 9999
391 3871 9999
404 3183 9999
93 900 10000
432 1428 10000
349 2012 10000
283 2692 10000
393 3296 10000
353 1315 9999
85 4499 9999
146 4615 9999
363 1438 9999
184 2408 10000
69 3270 9999
437 4243 10000
107 3953 9999
176 2678 10000
98 1521 9999
180 3373 10000
479 3312 10000
68 3269 9999
329 1926 9999
180 3638 9999
486 4412 10000
71 801 10000
90 1621 9999
227 1204 10000
462 958 9999
114 1127 9999
325 628 9999
261 316 10000
6 529 10000
126 1769 9999
230 3953 9999
267 3930 9999
18 1221 9999
189 2099 10000
87 1182 9999
99 3526 9999
13 284 9999
88 244 10000
458 4860 10000
144 1737 9999
22 1693 10000
448 3156 10000
432 3486 10000
277 2751 10000
386 1653 10000
400 4522 10000
369 603 9999
181 1370 10000
172 862 9999
15 3220 10000
389 3946 10000
206 560 9999
437 3110 10000
377 469 9999
420 731 9999
270 4171 10000
482 4239 9999
122 3933 10000
467 2836 9999
157 4742 9999
489 819 10000
78 4728 9999
137 184 10000
55 524 9999
52 3839 10000
7 4069 10000
145 3869 9999
492 3460 9999
155 230 10000
481 1203 10000
321 4187 10000
41 2597 9999
279 4765 9999
377 2596 9999
228 3226 10000
98 3192 10000
217 1191 10000
42 2522 9999
484 1682 10000
333 1015 10000
259 1582 9999
156 290 10000
172 1245 10000
246 2957 10000
276 539 10000
140 3290 10000
2 318 9999
128 2892 9999
455 1028 9999
491 3209 9999
420 1620 9999
416 2922 10000
160 2758 10000
94 1045 9999
202 1100 10000
428 4278 9999
471 1634 9999
384 4006 9999
55 865 10000
128 982 9999
264 1772 10000
66 3678 10000
129 3215 9999
332 3791 9999
262 3257 10000
224 1722 10000
110 3844 9999
349 1581 9999
353 3093 10000
495 2098 10000
421 3932 9999
198 4447 10000
463 4106 9999
190 3781 9999
91 1819 10000
97 681 10000
202 1446 9999
321 448 9999
95 3496 9999
218 1226 10000
87 1771 9999
122 4096 10000
201 453 10000
300 1836 9999
483 2662 10000
116 2184 10000
481 3268 9999
204 902 9999
461 1363 9999
449 4173 10000
63 3302 10000
291 4797 10000
410 697 9999
395 1242 9999
4 3347 9999
182 287 9999
101 2962 9999
491 2085 9999
439 1284 10000
77 2006 9999
277 3471 10000
182 3162 10000
237 2558 9999
133 1649 9999
268 4468 10000
45 3586 10000
109 2646 10000
449 1229 10000
348 870 9999
316 2939 10000
148 411 10000
191 3570 9999
65 3701 10000
245 1649 10000
36 1675 9999
253 3395 10000
51 3271 10000
55 4986 10000
289 2829 10000
150 1947 10000
96 2480 9999
1 865 10000
358 2162 9999
252 2907 10000
331 1313 9999
125 2626 10000
432 4464 10000
237 4902 9999
11 4815 10000
349 1914 9999
16 2687 9999
177 3550 10000
250 1401 9999
147 3182 10000
299 3995 10000
195 2121 10000
442 2919 10000
169 2421 10000
305 4837 9999
303 2974 9999
286 2119 9999
451 657 9999
27 1022 10000
163 1243 10000
294 3867 10000
433 2003 10000
405 1944 10000
80 2233 10000
3 4220 9999
228 937 10000
37 4105 10000
148 4346 10000
142 4600 9999
486 1640 9999
218 4202 10000
428 3994 9999
87 1287 10000
240 1129 10000
341 2968 10000
403 1042 10000
334 3053 10000
387 444 10000
265 4314 9999
188 1875 9999
334 1001 9999
83 4472 9999
443 4601 9999
95 646 9999
307 2621 10000
76 185 10000
418 3314 9999
406 3587 10000
34 745 10000
236 4966 10000
433 4111 9999
385 2599 9999
165 2163 9999
233 2709 10000
91 4576 10000
100 4720 10000
483 636 9999
230 2380 9999
362 4830 10000
137 343 9999
383 1745 9999
481 2446 10000
65 4761 10000
441 584 9999
6 2222 10000
75 1549 9999
71 4096 9999
244 2758 10000
400 4830 10000
96 1112 10000
162 3350 9999
223 3080 9999
342 1981 9999
207 2261 9999
120 4632 10000
120 4647 10000
72 1895 10000
387 1923 9999
448 2115 9999
394 1044 10000
286 1740 10000
288 2494 9999
417 2858 9999
313 4331 9999
419 3183 10000
222 1025 10000
157 4246 9999
354 4737 10000
459 1586 10000
127 1334 10000
209 1216 10000
216 1229 9999
496 1870 10000
125 2247 9999
262 3041 10000
179 672 9999
294 3912 10000
436 2429 9999
11 538 9999
220 2659 9999
333 1871 9999
477 4066 9999
452 4891 10000
201 1688 10000
104 1473 10000
493 4122 10000
427 3453 10000
447 4373 10000
256 679 10000
325 3966 10000
108 1385 10000
339 1067 10000
3 105 9999
452 932 10000
319 4392 10000
422 3305 9999
348 952 9999
134 857 10000
250 553 10000
315 3565 10000
116 3759 9999
13 1687 10000
430 4969 10000
483 1399 10000
396 1114 10000
398 4866 10000
168 2846 9999
340 2929 10000
43 4309 9999
374 4390 9999
353 2918 9999
241 1500 9999
345 4670 10000
445 2056 9999
120 1118 9999
279 4080 9999
120 2919 9999
106 3054 10000
424 3683 9999
370 3302 10000
77 298 10000
198 909 9999
180 2960 10000
143 1738 10000
246 2209 9999
453 1061 10000
44 1916 9999
207 457 9999
47 2053 9999
331 3138 10000
189 1506 9999
237 693 9999
22 2209 9999
313 4644 9999
312 4957 10000
170 3038 10000
218 3169 9999
29 3331 10000
162 489 9999
363 418 10000
414 1326 9999
483 4995 9999
76 3173 9999
481 4878 9999
464 1963 10000
250 271 9999
361 794 9999
85 2451 9999
265 2579 9999
401 4299 9999
172 4851 9999
442 803 10000
287 1657 10000
382 3087 10000
184 2872 9999
268 4529 9999
202 2026 9999
195 3206 9999
141 928 10000
326 2059 10000
181 4109 10000
309 4525 9999
499 989 9999
310 3607 9999
376 2512 9999
256 4530 9999
252 4767 9999
317 4439 9999
81 4700 9999
193 2437 10000
89 2413 10000
299 4780 9999
411 4584 10000
2 1211 9999
5 4789 9999
478 3358 10000
181 567 9999
152 1393 9999
388 3283 10000
131 3273 9999
159 3211 10000
334 390 10000
349 2767 9999
261 2843 10000
260 2774 10000
327 3317 10000
202 2263 10000
238 4833 10000
486 2019 9999
79 2028 9999
267 2908 10000
417 4063 10000
269 669 10000
394 4134 9999
412 3356 9999
87 1569 10000
393 2367 9999
193 955 10000
131 1840 9999
229 810 10000
450 4175 10000
274 3959 10000
320 3803 9999
219 1504 10000
418 3030 9999
379 3077 10000
322 4540 9999
35 2518 10000
288 3235 9999
300 2484 9999
414 1871 9999
330 3439 10000
33 3475 9999
408 3946 10000
388 1456 10000
37 3338 10000
110 2066 9999
73 2484 10000
178 3938 9999
6 1611 9999
251 1621 9999
161 1792 10000
92 652 9999
48 2964 9999
285 4987 9999
86 1272 10000
74 3788 9999
132 1125 10000
107 1037 10000
462 4329 10000
93 872 10000
61 2726 9999
442 4990 10000
288 4390 9999
158 4805 9999
266 3454 10000
71 2527 10000
145 4834 10000
39 2593 10000
346 4717 9999
328 3509 9999
57 3439 10000
24 4745 9999
38 4553 9999
467 3529 10000
325 3755 10000
16 1386 9999
145 4979 9999
127 3494 10000
197 1195 9999
346 3223 9999
95 4376 9999
460 2164 9999
129 4438 9999
168 2269 10000
63 1838 10000
304 3174 9999
332 2337 9999
417 3365 9999
1 620 10000
472 3699 10000
256 3026 10000
302 1087 10000
358 802 9999
308 4299 9999
273 4515 9999
296 4671 9999
312 4646 10000
497 3618 9999
389 3095 10000
339 2429 9999
462 2562 9999
262 3463 9999
475 4645 9999
172 2512 10000
368 4541 9999
147 965 10000
122 4629 9999
359 444 9999
486 3851 9999
121 4748 9999
494 4636 10000
187 1313 10000
246 3825 10000
30 1593 9999
356 4832 9999
57 2650 10000
281 927 10000
131 4516 10000
423 1429 10000
185 4659 9999
109 2000 9999
98 2226 9999
9 1418 9999
62 1621 9999
122 1877 10000
450 4631 9999
406 3568 9999
483 4901 10000
289 1426 9999
67 568 9999
445 1972 10000
228 3677 10000
403 4954 10000
34 930 10000
113 372 9999
368 4702 9999
112 3229 10000
177 2880 10000
55 1508 9999
372 753 9999
293 4737 10000
451 1891 9999
273 4848 9999
443 1828 9999
99 1538 10000
158 4131 10000
154 3897 10000
326 4549 9999
4 3215 9999
111 584 9999
434 3304 10000
238 630 10000
482 1486 10000
122 3664 10000
345 3644 10000
495 4883 10000
237 3109 9999
395 3248 9999
82 4575 10000
361 4819 9999
459 1777 10000
353 2882 9999
256 3111 10000
463 3755 10000
241 1769 10000
108 1796 10000
1 3636 9999
477 2871 10000
403 844 9999
482 2869 9999
94 4329 9999
397 1056 9999
397 431 9999
372 4793 10000
261 1432 9999
131 3987 10000
105 3305 10000
20 4818 10000
350 1299 9999
364 1405 10000
163 305 9999
38 2360 9999
154 4648 10000
457 3022 10000
150 4619 10000
101 2270 9999
72 4209 9999
52 713 10000
304 2609 9999
189 2818 10000
53 163 10000
210 1354 9999
372 4733 10000
288 2795 9999
158 1497 10000
408 1144 9999
360 4389 9999
38 1424 9999
492 2556 9999
202 4820 9999
82 1314 10000
111 2538 10000
97 2091 9999
27 579 9999
442 3350 10000
238 1633 10000
271 1949 9999
211 3048 10000
439 3726 9999
367 4477 9999
348 2188 9999
367 2320 10000
27 2732 10000
366 755 9999
229 2608 9999
137 3511 9999
425 2362 9999
113 3734 9999
302 4568 9999
333 2237 10000
321 4102 10000
433 1925 9999
287 3108 9999
217 3247 9999
188 4586 10000
377 3302 9999
388 4214 10000
371 4224 10000
134 4789 9999
144 2372 9999
448 1167 9999
7 2793 10000
455 2405 9999
485 1490 9999
443 1712 9999
354 674 9999
389 3902 9999
376 1616 10000
417 1452 10000
44 3044 10000
197 1372 9999
409 1770 9999
26 1257 9999
122 2890 10000
33 1244 10000
27 2957 9999
12 3518 9999
239 604 9999
166 2806 9999
212 2738 10000
190 1459 10000
416 3200 9999
481 3313 9999
22 923 10000
380 5000 10000
430 3480 10000
397 557 10000
316 4208 10000
328 569 9999
220 4071 10000
154 1428 9999
440 2180 10000
127 3371 10000
245 1283 9999
43 980 9999
147 1747 10000
438 1133 10000
123 1212 10000
117 2297 10000
67 2319 10000
89 116 10000
277 2903 9999
230 2545 9999
405 1920 9999
323 661 10000
150 1869 10000
373 3103 9999
86 3717 10000
172 274 9999
51 2416 9999
218 4435 10000
30 4322 9999
441 2132 9999
312 662 10000
417 4124 9999
350 994 9999
417 4722 10000
428 845 10000
285 1651 10000
37 4832 10000
340 5000 9999
100 1436 9999
177 1666 10000
123 4541 10000
61 863 10000
13 1611 9999
407 880 9999
268 668 10000
243 3533 10000
406 1989 10000
157 3586 10000
111 3946 9999
338 3677 9999
331 3305 10000
298 692 10000
117 845 10000
103 139 9999
219 3429 9999
195 4465 10000
379 3339 10000
80 977 10000
235 1266 9999
377 2325 9999
25 195 9999
70 1952 9999
343 4730 10000
38 474 10000
224 579 10000
216 1955 9999
320 4513 10000
44 510 9999
184 1907 10000
124 611 10000
352 2053 9999
300 3192 9999
263 1214 9999
290 1115 9999
458 3843 9999
395 964 9999
392 2372 10000
334 3273 9999
204 2651 10000
471 2925 10000
298 3035 9999
155 3127 10000
17 354 9999
146 4353 9999
486 3784 9999
448 3474 10000
69 4566 9999
164 4158 9999
52 3319 9999
441 493 10000
418 2968 9999
365 3318 9999
252 1607 10000
92 3579 10000
176 2279 9999
266 328 10000
88 1539 10000
313 3984 9999
195 3520 9999
400 4808 9999
93 895 10000
403 622 10000
7 3799 10000
245 2160 10000
389 779 9999
399 2590 9999
381 4360 10000
124 276 9999
440 889 9999
179 2482 9999
482 4265 9999
166 2881 9999
416 1068 10000
123 1398 9999
48 4725 10000
372 1254 10000
429 4562 9999
42 1673 10000
244 537 9999
195 1209 10000
417 4576 10000
189 2586 9999
36 2494 10000
56 955 10000
243 3755 10000
285 3624 9999
454 4769 10000
466 3115 10000
197 2460 9999
164 4857 9999
169 4596 10000
119 1490 10000
25 1198 9999
199 1127 9999
264 3193 9999
358 4042 10000
140 4828 9999
252 4361 9999
430 3669 9999
102 3454 9999
117 4852 10000
121 1151 9999
402 2342 9999
373 2737 9999
90 3650 9999
152 1261 10000
141 1305 10000
227 1010 9999
75 2502 10000
345 3933 9999
247 4418 9999
160 2802 10000
384 4992 9999
144 867 10000
47 4929 10000
367 1347 10000
470 1480 10000
475 2937 9999
417 2161 10000
457 2830 10000
400 4526 10000
456 3688 10000
479 4591 9999
400 4733 10000
303 503 10000
45 474 10000
116 1498 10000
38 4352 9999
67 1136 10000
409 4927 10000
160 720 9999
47 4653 10000
337 4277 9999
195 4806 9999
491 1144 10000
108 1117 10000
150 2617 9999
348 4638 10000
39 2791 10000
76 3145 9999
95 1491 9999
5 4968 10000
9 2844 9999
115 3756 10000
73 1001 9999
222 3408 10000
188 3915 10000
85 2360 10000
286 4669 9999
278 1036 9999
230 819 9999
142 4698 9999
374 1319 10000
191 4601 10000
253 3679 9999
203 350 9999
108 1432 10000
259 341 10000
250 3712 10000
163 2230 9999
167 1811 9999
59 4372 9999
10 4506 9999
335 2607 10000
457 1108 10000
87 661 10000
411 4742 10000
170 725 10000
406 3766 9999
478 4831 10000
93 861 9999
448 1489 9999
253 2808 10000
219 4208 9999
427 2981 9999
216 1402 9999
468 1104 9999
242 2389 9999
85 3120 9999
115 2144 10000
317 3106 10000
45 3056 9999
342 1812 9999
385 788 9999
321 3871 9999
364 2380 9999
126 370 9999
352 4452 10000
385 4770 9999
198 1119 9999
478 2365 9999
189 1130 9999
136 4056 10000
276 1508 10000
382 4307 9999
482 1263 10000
451 3451 9999
340 871 10000
221 668 10000
209 3705 10000
430 3745 10000
166 1041 9999
22 2871 10000
153 686 10000
421 2749 9999
466 1811 10000
56 2873 9999
213 821 9999
64 1856 10000
221 1389 10000
226 3159 9999
265 3032 10000
332 3336 9999
312 3949 10000
295 3239 10000
371 2879 9999
133 4009 10000
99 2309 10000
175 1944 10000
445 3074 9999
367 2926 10000
142 2508 9999
42 3364 10000
364 3241 9999
132 3386 9999
150 185 9999
148 3643 9999
403 3500 10000
101 549 10000
137 3338 9999
340 2764 10000
361 1188 9999
417 3734 10000
259 982 9999
316 326 10000
52 347 9999
36 4986 9999
303 411 10000
63 1550 10000
379 4827 9999
288 4152 9999
156 3726 10000
99 2959 9999
193 1181 10000
458 2110 10000
357 2838 10000
90 1447 9999
1 2159 10000
181 897 10000
10 465 9999
33 4529 10000
315 3570 9999
33 3213 10000
360 2836 9999
17 909 10000
228 4123 9999
450 2204 9999
182 371 9999
314 4296 9999
245 816 10000
269 4372 9999
183 2725 9999
398 590 9999
432 3246 10000
229 2434 9999
361 3510 9999
38 151 9999
146 634 10000
401 1384 9999
249 1779 10000
55 3835 9999
131 2119 9999
359 517 10000
253 1011 9999
319 3250 10000
208 241 10000
230 3163 9999
446 2758 9999
488 4518 10000
488 4848 9999
475 2194 9999
120 4741 10000
393 2381 9999
480 533 10000
324 1080 9999
429 2793 9999
231 400 9999
488 3028 10000
431 4528 9999
115 3045 9999
424 1701 9999
492 3083 10000
153 777 9999
210 1132 9999
136 3528 10000
139 2523 9999
273 321 9999
252 846 9999
91 3557 10000
278 1979 10000
298 2623 9999
467 1064 10000
369 1738 10000
345 4323 9999
227 2702 10000
356 3293 10000
361 4041 9999
94 1300 9999
490 2424 9999
394 2156 10000
259 1829 10000
335 4855 9999
248 4207 10000
270 2145 9999
310 4530 10000
492 3163 10000
62 4394 9999
223 3907 10000
202 3591 10000
319 1365 10000
123 254 9999
430 4820 10000
200 3989 9999
404 4308 9999
125 1323 10000
462 1338 9999
56 4879 10000
492 933 9999
61 4027 10000
361 4263 9999
29 1158 10000
496 3700 9999
40 280 9999
244 2496 9999
83 2358 10000
281 3961 9999
263 1532 10000
91 3227 10000
316 3010 10000
234 1248 9999
240 1595 10000
104 4391 10000
245 3835 9999
493 2452 9999
26 3486 10000
37 336 10000
388 4509 10000
405 4408 10000
405 1264 9999
495 3524 9999
206 2727 10000
378 781 9999
373 4239 10000
54 715 9999
116 4370 9999
140 4599 9999
217 4292 9999
453 2025 9999
340 3078 9999
249 3631 9999
138 2417 9999
57 2599 10000
461 984 9999
257 2010 10000
394 3206 10000
152 567 9999
76 1585 9999
197 3193 10000
43 4482 10000
188 3908 9999
496 2441 10000
306 2841 9999
495 3067 10000
458 3250 9999
457 1288 10000
33 3809 9999
330 1663 10000
482 3430 10000
380 2982 9999
305 1254 10000
97 511 10000
440 2883 9999
198 523 10000
378 4029 10000
335 3583 9999
353 4184 9999
281 2438 10000
211 1129 9999
54 3130 9999
408 4703 9999
448 2343 9999
356 4368 10000
48 1150 10000
477 2749 9999
12 3983 10000
51 2404 10000
277 3588 10000
425 1056 10000
262 4727 10000
242 4404 9999
155 1258 9999
134 806 10000
226 3833 9999
375 1216 10000
273 3724 9999
190 1192 10000
250 4939 10000
79 1899 10000
128 1389 10000
53 1814 9999
147 1553 9999
160 454 10000
300 3442 9999
349 2401 10000
294 812 10000
70 4712 10000
393 3864 9999
382 2232 9999
67 4414 9999
88 3096 9999
319 1473 9999
281 827 9999
329 3623 10000
202 2644 10000
194 2535 10000
57 4316 10000
252 1324 9999
301 3384 10000
500 4985 9999
256 927 9999
443 1359 9999
475 1427 9999
129 4611 10000
255 4832 10000
462 491 10000
149 766 9999
117 1569 9999
424 4211 10000
22 4533 10000
109 4471 10000
105 3158 9999
499 916 10000
309 3408 10000
19 1500 9999
485 892 10000
43 1631 10000
466 1236 10000
53 2315 9999
264 1792 10000
25 1070 9999
323 1867 9999
396 3852 9999
491 3963 10000
273 4930 10000
486 4941 9999
50 4462 10000
221 4194 9999
50 3219 9999
244 3155 9999
60 2273 9999
246 1942 10000
60 1363 10000
316 2406 10000
267 1738 9999
54 854 9999
143 1104 9999
116 2650 10000
372 833 9999
238 813 9999
297 4348 9999
276 3184 9999
370 3780 10000
265 869 10000
9 3038 10000
277 328 9999
97 3494 10000
477 683 10000
485 3963 9999
316 2558 10000
470 3720 10000
165 1990 10000
348 456 9999
216 3730 10000
378 1568 9999
449 4721 9999
54 2645 9999
312 3648 9999
481 1288 10000
15 3915 10000
260 796 10000
394 2959 10000
373 3264 10000
154 1139 9999
194 4121 9999
32 4502 9999
289 1669 10000
364 1255 9999
98 1142 10000
366 4080 9999
314 3632 9999
117 1415 10000
252 1634 10000
398 2945 10000
129 951 10000
272 3370 10000
1 83 10000
98 4093 9999
90 2612 10000
328 811 10000
437 1121 10000
438 1317 10000
125 4307 9999
114 3781 9999
453 1510 10000
428 4110 9999
413 1496 9999
440 3156 9999
311 937 10000
95 927 9999
190 1199 10000
342 4239 9999
185 4771 9999
476 3818 9999
74 924 10000
140 3742 9999
257 2950 9999
170 3212 10000
342 2329 10000
401 3694 10000
136 2236 9999
40 1604 9999
339 2633 10000
88 3117 10000
400 3330 9999
333 4028 9999
417 2833 10000
160 4840 9999
40 49 9999
238 4816 10000
195 3871 10000
43 3785 9999
439 3310 9999
95 4387 9999
39 1138 9999
33 2334 9999
462 2486 10000
122 2595 9999
381 4070 9999
91 649 10000
398 614 9999
165 4735 9999
8 3541 9999
335 4538 10000
385 3147 10000
376 2181 10000
397 4112 10000
469 3605 9999
264 1457 9999
403 1144 9999
40 4053 9999
230 1952 10000
64 1429 9999
318 2741 9999
236 3710 9999
149 3315 10000
284 619 10000
445 2094 10000
419 4487 9999
488 510 10000
436 2000 10000
131 2164 10000
52 3408 10000
201 1243 9999
466 1711 10000
326 4313 10000
102 4799 10000
130 280 10000
152 4829 9999
195 1783 10000
110 1619 9999
376 2849 9999
173 3208 10000
294 2462 9999
238 3393 10000
446 4223 9999
204 2468 10000
138 3801 10000
133 1527 9999
38 51 10000
151 3041 9999
70 578 10000
258 470 9999
189 4113 9999
95 2178 10000
184 2338 10000
162 1928 9999
251 4918 10000
119 2439 10000
234 294 9999
397 4387 9999
355 1109 9999
495 1777 9999
285 3791 10000
381 4018 10000
346 4336 10000
203 2232 10000
133 4985 10000
51 3058 9999
117 4948 9999
48 3611 9999
45 517 10000
88 784 9999
435 2087 10000
67 2052 10000
395 2103 9999
261 3342 9999
144 881 10000
80 2439 9999
418 2212 9999
60 2145 9999
8 2210 9999
173 703 10000
482 2257 9999
65 228 9999
408 4430 10000
202 1086 9999
359 4564 10000
291 4260 10000
500 2779 9999
195 4170 9999
54 4067 10000
74 4512 9999
391 4324 9999
126 3074 10000
140 4590 9999
415 996 10000
130 2343 9999
185 4790 10000
495 2267 9999
499 3708 9999
451 2890 9999
469 1483 9999
239 2181 9999
217 1128 10000
140 3841 10000
258 2965 9999
192 522 10000
265 1708 9999
185 709 10000
296 2595 10000
494 1381 9999
295 2147 10000
320 1246 10000
309 3425 10000
165 1074 9999
448 1736 9999
108 3385 10000
91 828 9999
45 4060 9999
426 2541 10000
442 2570 10000
25 1880 10000
400 3523 9999
253 1932 9999
59 4565 10000
161 381 9999
468 4057 9999
418 1077 9999
183 4118 10000
69 3227 9999
423 3843 10000
406 4989 10000
88 1462 9999
309 2669 9999
276 4193 10000
263 828 9999
243 4762 9999
253 1480 9999
136 2685 9999
322 3252 9999
451 1458 9999
335 1361 10000
282 866 10000
296 790 10000
138 830 10000
308 2691 10000
187 4220 9999
131 4337 9999
289 922 9999
349 2286 10000
42 800 10000
377 1351 10000
373 3229 9999
98 165 10000
136 1401 10000
479 4786 9999
292 2608 10000
375 3713 9999
45 2561 10000
142 2667 9999
41 57 10000
213 4827 9999
66 1363 10000
102 4543 9999
491 2550 9999
265 1113 10000
361 1627 10000
432 3654 9999
399 3962 9999
459 3710 10000
87 4895 10000
232 683 9999
381 3965 9999
474 4194 9999
191 4313 10000
51 1967 10000
196 4813 10000
457 4781 10000
48 4927 9999
291 694 9999
20 4978 10000
23 1605 9999
275 4382 9999
413 1329 10000
468 4328 9999
265 4498 9999
118 3845 10000
303 2149 9999
374 1082 10000
324 4155 10000
114 135 9999
152 347 10000
267 3579 9999
79 103 10000
418 1136 10000
445 2502 9999
68 3190 10000
109 855 9999
175 4175 10000
191 2782 9999
231 2395 9999
289 2479 10000
133 2268 9999
31 481 10000
266 1611 9999
39 1369 10000
79 3733 9999
479 3425 10000
200 1224 10000
24 2130 10000
215 2859 10000
31 55 9999
374 4503 9999
415 2976 10000
459 4123 9999
38 1295 10000
215 4535 9999
372 3759 10000
93 4877 9999
189 4421 9999
182 2094 9999
337 4846 9999
240 3130 10000
53 432 10000
120 2573 9999
139 1418 10000
155 2794 10000
25 4775 10000
464 2689 9999
466 4118 9999
438 4759 10000
129 2611 9999
388 4455 9999
440 2634 10000
412 3792 9999
131 3327 9999
185 3397 9999
148 2307 10000
237 3990 10000
483 2190 10000
381 4301 9999
166 2842 10000
387 1606 9999
260 4857 9999
404 1086 10000
356 882 10000
343 402 10000
49 1012 9999
288 4521 9999
12 4993 10000
206 1953 10000
181 2185 10000
46 4801 9999
374 1849 9999
445 2927 9999
494 3272 9999
294 1654 9999
499 4411 9999
485 2138 9999
88 2335 9999
86 2188 9999
41 380 9999
160 2531 9999
449 919 10000
409 1597 10000
131 1192 9999
65 623 10000
371 4020 9999
170 4747 9999
261 4769 10000
227 439 9999
476 3424 10000
267 4042 10000
329 416 10000
216 4558 10000
411 1838 9999
441 3404 10000
135 4752 10000
478 1440 10000
263 4358 9999
309 3636 10000
284 1908 9999
248 4030 9999
217 2940 10000
486 4945 9999
57 1952 9999
37 2479 10000
386 1594 9999
245 4173 9999
246 4225 10000
448 1182 10000
58 566 10000
300 1324 10000
333 2014 9999
467 3655 9999
453 4440 9999
53 1078 10000
220 4169 10000
5 2476 9999
156 4187 10000
297 711 9999
449 728 10000
456 4693 9999
354 727 10000
370 4304 10000
165 215 10000
123 2050 10000
108 260 9999
137 887 9999
390 467 9999
379 2199 10000
188 4224 10000
147 4357 9999
258 3918 10000
314 757 9999
406 2746 9999
471 3545 10000
217 3827 9999
392 4512 9999
127 1091 10000
269 4294 10000
467 1851 9999
380 3797 10000
491 2604 9999
49 1347 10000
240 3229 9999
461 3567 9999
393 1587 10000
420 1682 10000
95 4205 10000
121 3686 10000
336 3622 9999
156 4327 9999
163 2324 10000
355 2630 10000
78 462 10000
127 981 10000
455 4316 10000
486 3912 9999
124 4574 9999
256 1172 9999
478 4432 10000
481 1363 10000
389 3390 10000
342 2783 9999
404 3179 9999
204 4875 10000
86 2314 9999
323 3260 10000
1 1522 10000
60 3215 10000
479 1345 10000
391 4952 10000
345 1132 10000
273 4399 10000
101 1503 9999
482 1719 10000
18 3524 9999
374 4125 10000
145 3670 10000
411 3461 9999
38 1471 10000
133 310 9999
302 3717 10000
67 1650 10000
126 3370 9999
220 2372 9999
329 1776 10000
407 2526 10000
259 881 9999
421 3496 10000
492 695 10000
92 4898 9999
15 19 10000
375 3078 9999
384 4690 10000
237 1845 9999
155 4791 10000
467 1428 9999
422 2595 9999
295 4886 10000
334 373 9999
422 3274 10000
39 3311 10000
114 4436 10000
38 4544 10000
263 2326 10000
105 4731 10000
284 4764 10000
358 3690 9999
222 623 9999
461 4544 10000
17 1182 10000
162 1889 10000
177 1948 9999
36 3405 10000
418 1736 10000
182 472 10000
431 2720 10000
246 3960 10000
231 3827 9999
24 3998 9999
286 4598 10000
136 1421 10000
403 1491 10000
451 2101 10000
24 1313 9999
227 2397 10000
134 1279 9999
401 2114 10000
78 2305 10000
230 4768 9999
281 4787 10000
80 2685 9999
489 4616 10000
195 332 9999
264 1734 9999
362 3768 9999
35 1119 9999
149 2025 10000
374 1456 9999
454 4305 10000
447 2814 10000
82 1871 10000
355 1594 10000
240 1317 9999
70 4119 9999
100 4013 10000
211 3743 9999
266 1858 10000
296 2810 10000
462 4133 9999
161 2727 9999
343 1790 10000
101 2912 9999
275 1080 10000
254 2140 10000
238 554 10000
258 2633 10000
215 4113 10000
393 4962 10000
195 4800 9999
73 1340 10000
404 4364 9999
410 2506 10000
78 2452 9999
413 1579 10000
398 2086 10000
303 3720 10000
37 3004 9999
193 2792 10000
306 1187 10000
451 4655 9999
46 3795 10000
296 2038 9999
329 3180 9999
55 2215 9999
112 1599 9999
13 824 9999
178 3828 9999
436 4184 10000
379 2129 9999
144 4032 10000
27 2348 9999
434 3629 9999
67 4698 10000
343 2025 10000
83 3339 10000
21 3171 9999
123 1587 10000
75 3247 9999
211 2089 10000
387 2124 10000
218 4766 9999
444 1681 9999
492 2744 10000
211 919 10000
493 2198 9999
234 1556 9999
144 3965 9999
65 1740 9999
389 3449 9999
214 1428 10000
71 4001 9999
372 3007 10000
340 1519 9999
462 974 10000
43 4173 9999
31 4316 10000
284 4641 10000
475 2499 9999
247 1144 10000
145 4045 10000
106 620 10000
235 4906 10000
212 4793 10000
376 3702 9999
467 1846 9999
326 2342 10000
169 1083 9999
143 1289 9999
92 4740 10000
217 3443 9999
263 2398 10000
142 4661 10000
263 3819 10000
480 1854 9999
318 3771 10000
308 4920 9999
8 371 10000
261 843 10000
408 2989 10000
487 1264 9999
483 845 9999
382 4141 9999
491 909 9999
495 1851 10000
332 4611 9999
42 2107 10000
336 1876 10000
337 4029 10000
409 1036 9999
222 1617 10000
194 3266 10000
471 1419 9999
47 3186 9999
154 622 10000
388 3623 9999
12 1943 10000
398 2198 10000
96 3705 10000
256 285 9999
28 1372 10000
486 2798 9999
321 1781 9999
150 3449 10000
378 2241 9999
255 1723 9999
115 4488 9999
469 3816 10000
499 4782 9999
45 2321 9999
172 4653 9999
256 291 10000
251 4946 9999
383 2895 9999
227 2644 9999
227 2595 10000
406 783 9999
105 541 9999
22 898 10000
27 4371 9999
295 484 10000
241 549 10000
82 2988 9999
256 4795 9999
186 3973 9999
258 4038 10000
168 3019 9999
210 3783 9999
103 747 10000
73 4396 9999
375 1182 9999
161 731 10000
336 4276 10000
33 1806 10000
178 3131 9999
324 1691 9999
120 2631 9999
113 1045 9999
317 4727 9999
6 1010 10000
418 3299 10000
255 2493 10000
116 3990 9999
467 2369 9999
24 4739 9999
68 1172 9999
147 3555 9999
186 2900 10000
246 381 10000
128 891 10000
218 513 10000
80 3194 10000
157 2371 9999
167 2194 9999
228 2316 10000
122 4321 10000
489 3278 9999
278 4445 10000
77 3462 10000
319 3956 9999
159 4479 9999
335 525 10000
350 4174 9999
74 458 10000
57 2192 9999
379 2590 10000
247 2859 10000
35 422 9999
314 625 10000
337 761 10000
20 1242 9999
101 1037 9999
347 2076 9999
84 189 9999
451 2313 9999
64 510 10000
9 91 9999
346 4427 9999
58 698 9999
154 3011 9999
264 2030 9999
58 1614 10000
381 4021 10000
27 1419 9999
299 1499 10000
332 2725 10000
11 131 9999
327 3132 9999
161 553 9999
297 3731 10000
447 2784 10000
7 4786 10000
479 2411 10000
384 2994 10000
235 1740 10000
306 2076 10000
54 2672 10000
326 4824 9999
24 2422 9999
358 4830 10000
497 4475 9999
13 4169 10000
177 2913 10000
154 876 9999
424 624 9999
198 549 10000
358 1833 10000
466 2543 10000
243 3480 9999
298 3071 9999
298 2074 9999
321 3893 10000
313 1318 9999
409 878 9999
141 2741 9999
160 312 10000
486 704 10000
49 4833 9999
486 3534 10000
321 3862 9999
108 1099 10000
304 2848 10000
67 937 10000
331 4419 9999
215 695 9999
159 1255 10000
89 4376 9999
103 4431 10000
68 1058 10000
298 3128 10000
449 1248 9999
473 4801 9999
236 4071 9999
39 2790 10000
109 3381 10000
255 3830 10000
142 2061 10000
361 715 9999
56 4407 10000
444 3824 9999
181 816 10000
304 4541 9999
55 3847 9999
43 3564 10000
422 3887 9999
373 2237 9999
137 4240 10000
351 4500 9999
326 3228 10000
208 1386 9999
121 3805 9999
2 3169 9999
424 1055 9999
208 4304 9999
374 1700 10000
61 1221 9999
331 524 10000
394 3056 10000
371 4557 9999
129 2599 10000
82 4640 9999
247 4215 10000
339 4079 10000
476 3644 10000
185 968 10000
258 1183 10000
417 855 9999
137 2334 10000
465 1927 10000
321 1855 9999
429 1084 9999
490 3906 10000
276 583 10000
207 558 10000
287 1622 10000
71 3699 9999
471 4950 10000
335 3901 10000
413 1825 10000
215 4045 9999
38 2345 10000
217 4019 9999
92 3029 10000
247 2540 9999
349 1815 10000
177 2531 9999
393 2619 10000
181 836 9999
208 2403 10000
53 4640 9999
313 944 9999
472 2354 9999
400 4094 10000
142 551 10000
114 2589 10000
306 612 10000
58 2975 9999
375 777 10000
312 3413 10000
470 615 9999
429 3126 10000
203 513 9999
423 815 9999
441 1506 10000
422 665 10000
243 1252 10000
481 4007 9999
390 2318 10000
140 800 9999
37 2238 10000
89 1165 9999
180 4075 9999
186 4416 10000
383 1872 10000
255 4985 9999
278 1704 9999
403 3076 10000
197 2644 9999
211 2625 9999
67 2348 9999
244 2041 10000
83 4427 10000
82 259 10000
394 2236 10000
473 4084 9999
393 4210 9999
413 2452 9999
88 4970 9999
59 3924 9999
239 4249 9999
359 1282 9999
431 626 10000
116 4466 9999
222 4609 10000
476 4375 10000
117 1235 10000
489 4037 9999
306 2692 9999
366 521 9999
110 3537 10000
438 3430 9999
21 3393 9999
33 3456 10000
442 2063 9999
177 3351 9999
490 4566 10000
470 2998 10000
58 3673 9999
142 3552 10000
391 3077 10000
299 3215 9999
277 3317 10000
380 2265 9999
494 4292 9999
157 829 9999
211 2360 9999
462 1220 9999
63 3768 10000
235 1671 9999
260 3852 10000
172 1507 9999
460 4670 10000
401 1979 9999
479 3381 10000
209 1446 9999
36 2491 10000
500 2130 9999
174 3971 9999
374 4701 9999
217 4887 10000
405 1468 10000
162 1658 9999
279 4821 9999
282 3813 10000
461 1907 10000
409 2304 9999
423 1141 10000
165 3191 10000
291 3465 9999
448 2106 10000
64 2523 9999
269 1733 10000
3 2215 10000
253 1248 9999
234 622 10000
376 1895 10000
375 1331 10000
298 4891 9999
156 3683 10000
110 420 9999
264 1167 9999
353 2919 9999
344 4978 9999
330 4628 10000
358 2142 10000
290 1600 9999
162 3024 9999
429 1371 10000
274 3631 10000
465 3053 9999
182 1667 9999
56 727 10000
381 3327 10000
357 4332 10000
194 2599 9999
184 3514 10000
18 847 9999
192 4924 9999
479 1858 10000
86 2403 9999
21 538 9999
408 1432 10000
373 2428 10000
320 3880 9999
500 1691 9999
330 1025 10000
69 4374 9999
315 3150 9999
471 4224 10000
479 3069 9999
344 3589 9999
395 1057 9999
152 3862 10000
356 786 10000
93 3388 9999
476 657 10000
80 2491 10000
299 3452 9999
494 2479 9999
403 4662 10000
298 2642 10000
24 3771 10000
79 974 9999
403 1089 10000
25 467 10000
340 1890 9999
419 3771 9999
232 4871 9999
424 1592 10000
482 2002 9999
157 207 9999
206 588 9999
344 4067 10000
281 2097 10000
21 3098 10000
91 241 10000
196 3440 10000
256 4712 9999
106 2138 10000
48 3001 10000
101 2762 9999
162 4523 10000
457 3499 9999
272 2376 10000
325 630 9999
106 3310 9999
367 4197 9999
308 4852 9999
267 4242 9999
271 283 10000
168 2065 9999
399 1361 10000
42 4190 10000
435 3418 9999
27 2113 10000
340 4673 10000
165 1683 9999
3 257 10000
218 1924 10000
352 1073 9999
37 3140 9999
318 864 10000
221 1985 9999
24 450 9999
97 4635 10000
468 2433 10000
451 4302 9999
380 3933 9999
86 4455 10000
256 4264 9999
149 3317 10000
57 1675 10000
459 4037 10000
126 1365 10000
28 2080 9999
380 2362 10000
406 3170 9999
380 4630 10000
257 3464 10000
225 3146 9999
243 2424 10000
441 4634 10000
271 919 9999
149 2201 9999
492 3213 10000
169 3794 9999
385 1029 10000
213 4545 9999
469 4436 10000
201 3039 9999
8 2468 9999
68 1826 9999
454 3272 10000
290 2944 10000
231 2920 9999
304 4854 9999
287 2760 10000
232 4823 10000
221 3428 9999
274 2878 10000
89 1490 9999
144 549 9999
196 2384 9999
209 3787 10000
245 2288 10000
350 4158 10000
344 3707 9999
398 4528 9999
58 2592 10000
19 3734 9999
61 2168 9999
191 1820 10000
7 4636 9999
481 3465 10000
386 3642 9999
271 4885 10000
19 1950 9999
289 1221 10000
384 2962 10000
425 4243 9999
281 828 10000
50 3984 10000
157 4318 9999
393 4299 9999
423 2100 10000
316 2995 9999
498 4921 9999
126 1072 10000
448 4305 10000
147 2560 10000
221 3332 10000
90 2144 9999
173 1738 9999
385 3281 9999
195 2773 10000
305 2391 9999
417 3898 10000
368 1764 10000
484 4436 9999
67 3073 10000
242 1048 9999
204 383 10000
355 2885 10000
15 369 9999
285 4071 10000
280 2783 10000
44 646 10000
153 2289 10000
55 3908 10000
391 2148 10000
310 4055 10000
125 994 10000
367 1992 10000
5 1201 10000
423 976 9999
164 4356 10000
404 3989 10000
414 1744 10000
402 3628 9999
487 2030 9999
183 4364 9999
210 655 10000
312 786 9999
177 4282 9999
106 2210 10000
444 4066 10000
233 2700 9999
216 2618 10000
393 4016 9999
230 4778 9999
118 3768 9999
361 837 9999
249 1393 10000
202 1740 9999
452 2052 10000
421 2804 9999
354 2248 10000
488 3871 10000
295 4413 9999
276 1517 9999
272 3771 9999
17 3951 10000
313 3388 9999
312 3417 9999
74 3280 10000
358 3806 10000
64 4188 10000
62 4437 9999
392 695 10000
103 1722 10000
136 1355 10000
311 1063 9999
212 1387 10000
361 1033 9999
367 1664 9999
398 2878 10000
197 3310 9999
106 4959 9999
127 432 10000
446 649 9999
166 2502 9999
473 2340 10000
237 3075 9999
200 4007 9999
79 819 10000
332 1604 10000
453 4715 10000
126 4546 9999
204 3597 9999
155 3855 9999
102 4149 9999
317 4102 9999
368 3615 9999
294 4056 9999
481 4839 9999
66 3693 10000
404 2760 10000
26 4789 9999
482 685 9999
371 1820 9999
239 4695 10000
130 454 9999
419 3261 10000
398 3002 9999
422 2190 9999
494 3710 9999
396 636 10000
232 1589 9999
136 2402 10000
254 3770 9999
296 3825 10000
150 1856 9999
418 1929 9999
245 3518 9999
358 2227 9999
276 3423 10000
457 1705 10000
313 4449 9999
253 3610 9999
453 4916 10000
148 4147 9999
374 1106 10000
265 3053 9999
364 3126 10000
120 1083 10000
457 2195 9999
5 60 9999
114 747 10000
303 4780 10000
224 3585 9999
426 4779 10000
478 1105 9999
283 2995 10000
237 2265 9999
280 4005 10000
2 2989 9999
387 2250 10000
391 2562 10000
247 3741 9999
133 2844 9999
278 2647 9999
97 936 9999
366 639 9999
270 4481 9999
105 4830 9999
234 4283 9999
187 4064 10000
129 3488 9999
301 1003 10000
346 718 10000
475 3420 10000
317 1298 9999
377 4675 10000
38 544 10000
305 4800 9999
432 631 9999
374 1370 10000
55 961 9999
127 4188 9999
23 2332 10000
148 2561 9999
210 2114 10000
7 2615 10000
376 3872 9999
221 3814 10000
157 1544 9999
258 4294 10000
165 1443 10000
13 3608 9999
486 3044 10000
247 3129 9999
34 1870 9999
362 2241 10000
151 4803 10000
242 3618 9999
26 4621 9999
186 2730 9999
182 4637 9999
113 2142 10000
68 1379 10000
388 4868 9999
285 3807 10000
40 1349 10000
98 4019 10000
497 2586 10000
207 1477 9999
155 3847 9999
5 767 10000
95 4733 10000
54 4348 9999
146 4954 9999
188 2656 9999
356 2569 10000
99 2189 9999
479 1624 10000
47 2890 9999
121 2580 10000
360 1896 9999
164 1371 10000
270 3548 9999
185 331 10000
66 2045 10000
329 3493 10000
401 1778 10000
293 661 9999
465 1982 9999
333 2892 10000
344 4450 9999
231 687 10000
498 793 10000
448 512 9999
432 3257 10000
322 2438 10000
465 836 9999
9 943 9999
84 259 10000
162 4391 10000
358 3720 10000
262 3869 10000
15 4584 10000
56 2391 9999
247 912 10000
135 4930 9999
264 3147 10000
96 2570 10000
326 3558 10000
344 613 9999
219 4945 9999
233 2238 10000
56 819 10000
379 1786 9999
379 3122 10000
286 3446 10000
59 1461 9999
460 3418 10000
457 4439 10000
99 2880 10000
31 3723 10000
483 2761 9999
158 1702 10000
235 4886 9999
179 4467 9999
234 791 10000
426 4527 10000
429 1132 10000
63 2251 9999
463 1458 9999
21 438 10000
295 3550 10000
472 1425 10000
247 300 10000
26 4274 10000
498 3865 10000
240 4778 10000
335 1411 10000
121 4582 10000
399 2479 10000
272 1810 10000
232 4018 10000
203 3447 9999
214 3593 9999
275 3591 9999
105 3746 9999
403 2778 9999
9 269 10000
457 3828 9999
312 928 9999
289 3569 10000
409 468 10000
486 4991 9999
309 1379 9999
384 1619 10000
15 595 9999
470 981 9999
191 639 9999
391 4812 9999
272 577 10000
36 2369 9999
4 2317 9999
44 455 10000
350 2890 10000
236 1495 10000
210 4330 9999
316 2435 9999
250 2204 10000
333 2447 10000
316 2449 10000
33 4076 9999
281 2536 10000
175 3499 9999
441 4360 9999
320 2964 9999
148 4440 10000
283 4404 9999
172 2641 9999
495 3297 10000
220 1194 10000
153 1493 10000
187 1930 9999
198 1036 9999
170 1531 10000
186 1757 10000
129 3438 10000
175 204 10000
96 3646 10000
168 1100 9999
473 926 10000
97 3209 10000
409 2101 9999
185 274 10000
27 4007 9999
109 919 9999
22 1480 10000
437 1249 9999
338 1053 10000
450 2414 10000
48 2590 9999
14 163 10000
471 3713 9999
184 1156 9999
193 580 9999
263 4422 10000
337 4619 9999
174 457 10000
146 1294 10000
374 1954 10000
72 3636 9999
436 2098 9999
267 1473 10000
430 3185 9999
5 2706 10000
428 1962 10000
227 318 9999
293 397 9999
355 4296 10000
289 1702 9999
205 986 10000
276 668 9999
7 4593 9999
482 3615 9999
484 1771 10000
266 1859 9999
192 4099 10000
147 1971 10000
480 3090 9999
423 3648 9999
310 3530 10000
292 3042 10000
428 584 9999
393 4222 9999
251 1398 9999
284 4962 10000
265 2389 10000
290 887 10000
354 1577 10000
226 1354 9999
321 2925 9999
107 1086 10000
13 2051 9999
467 1602 9999
296 4166 9999
133 1201 9999
396 4782 10000
329 2966 9999
157 1120 10000
284 2226 10000
100 3955 10000
421 820 9999
252 3646 9999
232 3264 10000
443 4485 9999
463 953 9999
468 3869 10000
15 4406 10000
240 2391 10000
213 4039 9999
452 2675 9999
189 3585 9999
368 4990 9999
498 3793 9999
431 1187 10000
3 2185 9999
470 1007 9999
345 2503 10000
87 3011 9999
369 3477 9999
391 4399 9999
391 4721 10000
314 4134 9999
184 1819 9999
461 3387 10000
147 794 9999
181 3656 10000
34 2947 10000
352 864 9999
394 1637 10000
323 4719 10000
200 1371 10000
377 3674 9999
45 4789 9999
185 545 9999
452 4598 9999
119 832 10000
104 677 10000
187 4663 9999
161 1372 10000
375 4627 9999
296 2435 10000
61 3749 10000
452 2826 10000
110 3201 9999
220 3345 10000
174 1056 10000
193 4833 10000
256 2227 9999
424 4726 9999
258 4525 9999
447 4048 9999
179 1814 9999
456 3950 10000
16 3744 9999
51 2500 9999
398 474 10000
132 4662 9999
361 798 9999
328 4052 9999
421 1044 10000
37 4945 9999
336 3620 9999
300 3177 9999
352 3365 10000
194 587 10000
5 2678 10000
455 4632 9999
384 1820 9999
269 2647 9999
195 787 10000
234 1274 10000
174 662 9999
492 1442 9999
286 1932 10000
152 1732 10000
65 426 10000
295 916 9999
363 1319 9999
354 1957 9999
470 3145 9999
344 1343 10000
286 4793 10000
329 1038 10000
242 4254 10000
283 1605 10000
112 4620 9999
8 2318 9999
410 1210 10000
59 4032 10000
471 2956 10000
364 2671 10000
175 2687 10000
487 3339 9999
19 408 10000
233 1729 9999
283 1618 10000
258 4228 9999
114 2515 10000
377 2758 10000
416 3967 9999
217 3516 10000
165 4793 9999
201 3281 9999
320 1879 10000
482 4905 9999
83 3983 10000
133 2088 9999
431 4774 10000
232 593 9999
353 1082 10000
245 1445 10000
402 996 9999
348 2407 10000
303 4460 10000
283 4353 9999
353 1588 10000
234 2609 10000
52 2009 9999
203 2321 10000
493 1253 9999
374 1776 9999
434 1151 10000
343 1701 10000
354 2117 10000
452 4494 9999
125 632 10000
497 4595 9999
480 3494 10000
170 4394 10000
407 1441 9999
151 4617 9999
333 2836 10000
211 3841 10000
26 3231 10000
433 2072 9999
241 4557 9999
109 1415 10000
22 2999 10000
319 2332 9999
439 2462 9999
419 882 10000
439 4333 10000
82 2705 10000
55 850 10000
31 65 9999
128 4756 9999
272 602 10000
449 2174 9999
33 776 10000
192 604 10000
426 3915 10000
306 2552 10000
79 2309 10000
444 1656 9999
278 2213 9999
468 4302 10000
63 2512 10000
341 3594 9999
492 1737 9999
12 1464 10000
21 2167 10000
97 647 9999
175 2322 10000
29 1468 10000
318 3290 10000
210 3046 9999
277 1544 9999
313 3330 9999
187 3776 10000
500 1531 9999
139 511 9999
60 3835 10000
210 268 10000
424 1574 10000
250 459 9999
238 4409 9999
26 4869 10000
485 3571 9999
60 368 10000
53 1300 9999
307 851 10000
52 2526 9999
182 2356 10000
247 1381 10000
77 3250 10000
370 4241 9999
92 2445 10000
264 3225 9999
377 4267 10000
24 3609 10000
329 816 10000
325 2648 10000
407 996 9999
135 1825 10000
328 4275 9999
222 2187 10000
422 1614 9999
337 4411 10000
94 2120 10000
498 2916 10000
220 3253 9999
336 2848 9999
124 2853 10000
441 3695 10000
433 3393 10000
378 3862 10000
407 1067 9999
458 3061 9999
286 4822 9999
425 3800 10000
387 2825 9999
370 3749 9999
490 1188 9999
102 3085 9999
416 2958 9999
176 1464 9999
345 2317 10000
163 709 9999
167 1484 10000
240 2826 9999
61 792 9999
452 3863 10000
208 3351 9999
345 3753 10000
46 3992 9999
7 3955 9999
339 1021 10000
166 1853 9999
499 4375 9999
465 3620 10000
47 2892 10000
53 942 10000
242 408 10000
284 629 9999
31 2115 10000
119 2881 9999
200 980 9999
217 2119 9999
187 3912 9999
407 4537 10000
347 3469 10000
172 1720 9999
208 4928 9999
167 3697 10000
296 4711 9999
419 2493 9999
412 4058 9999
327 1942 10000
6 3656 9999
85 3011 10000
204 2567 9999
456 1751 10000
233 2620 10000
325 1598 9999
187 220 10000
198 3694 9999
281 1837 10000
260 4684 10000
494 4203 10000
83 2818 10000
56 4456 10000
153 1531 10000
244 3605 9999
62 3279 9999
269 3975 10000
259 4557 9999
34 1347 9999
274 2506 10000
155 258 9999
462 1259 9999
422 2679 9999
75 1996 9999
329 3633 9999
211 3764 9999
348 3508 9999
217 958 9999
414 2131 9999
403 1488 9999
102 2155 9999
399 4333 9999
442 3065 9999
257 2653 10000
99 746 9999
443 4726 10000
234 1141 10000
422 3669 10000
105 2737 10000
475 3321 10000
17 514 10000
5 3767 9999
350 3063 10000
499 2389 10000
210 3112 9999
351 761 10000
208 4295 10000
179 3962 10000
36 3145 10000
409 2003 9999
62 1271 10000
63 900 10000
3 4542 9999
261 1734 10000
408 2682 9999
348 4752 9999
245 3431 10000
500 4697 10000
351 4101 9999
221 4427 9999
33 2130 10000
10 12 9999
463 2961 10000
76 415 10000
366 2881 10000
444 4935 9999
234 1894 10000
304 1632 9999
345 3716 10000
100 3921 10000
225 2450 10000
306 4378 9999
307 326 9999
312 3603 10000
308 1668 10000
186 2321 10000
312 377 10000
267 1750 10000
53 3599 10000
326 3993 10000
283 628 10000
32 411 9999
2 413 9999
316 2014 9999
329 4995 9999
341 1101 9999
245 3343 9999
397 1316 9999
386 1740 9999
336 3510 10000
358 2894 9999
391 957 10000
185 2567 9999
373 659 10000
137 3934 10000
500 1823 9999
265 2894 10000
226 1035 9999
84 4061 9999
436 2840 9999
490 1281 9999
417 3418 9999
447 3729 10000
411 1333 10000
455 4169 9999
153 2604 10000
86 4033 9999
391 2723 9999
251 3751 10000
256 1345 10000
412 2872 10000
336 3698 9999
22 2056 10000
283 4080 9999
213 1757 9999
374 517 9999
396 3589 10000
84 2267 10000
200 3540 9999
167 4693 9999
408 3693 9999
361 2279 10000
12 2554 9999
350 4609 10000
487 2137 10000
60 3656 10000
266 4218 9999
270 3434 10000
461 1234 9999
202 2042 10000
367 2038 9999
202 413 9999
308 2305 9999
144 2112 10000
103 1496 9999
451 4071 9999
214 1868 10000
53 4843 10000
109 315 10000
433 4374 9999
158 4221 9999
452 984 10000
458 3937 10000
95 2056 9999
497 4338 9999
193 1219 10000
258 4566 10000
118 4174 9999
113 3136 9999
240 4680 9999
264 612 10000
228 2027 9999
184 4216 10000
500 1952 9999
369 4208 10000
401 3280 10000
177 2444 10000
50 3885 9999
110 1375 10000
347 2126 10000
52 579 10000
394 2428 10000
9 919 10000
52 98 10000
416 1117 9999
455 3854 10000
108 3622 10000
121 1302 10000
81 2116 10000
466 1556 10000
466 3418 10000
106 2055 9999
450 3864 10000
91 2296 9999
149 3698 10000
9 3054 10000
275 1595 9999
371 3041 9999
341 3679 9999
6 4496 9999
46 871 9999
411 1343 9999
283 3206 9999
346 2719 10000
346 4776 9999
449 478 10000
384 3025 10000
142 920 9999
388 2686 9999
479 1423 10000
469 3091 9999
500 2623 9999
128 248 9999
182 1139 9999
233 2123 10000
427 4900 9999
344 4614 9999
364 1242 10000
250 2430 10000
400 1883 9999
259 3309 9999
264 455 9999
499 4447 10000
115 1703 9999
448 3278 9999
13 4594 9999
319 4354 10000
186 4305 9999
369 2828 9999
6 4101 10000
91 3904 9999
251 885 9999
384 1607 9999
199 637 9999
2 1610 10000
213 1683 10000
221 3464 10000
349 3681 9999
495 2100 10000
420 4051 10000
157 2167 9999
115 4325 10000
494 1530 10000
115 3000 9999
449 538 10000
195 4564 10000
21 2581 10000
455 3327 10000
135 3407 9999
225 3539 10000
425 3490 10000
342 4272 10000
44 1409 10000
341 1196 9999
135 2357 10000
310 2870 9999
83 2632 10000
339 4315 10000
236 1937 10000
247 3836 10000
204 1472 10000
48 1624 10000
237 4471 10000
37 965 9999
406 1761 9999
156 3639 10000
247 3554 9999
216 1215 9999
275 534 10000
165 4051 10000
40 1163 9999
108 4299 10000
191 876 10000
368 1261 10000
279 3877 9999
488 2711 10000
427 4289 9999
400 507 9999
117 4800 10000
75 1330 10000
127 2302 9999
197 253 9999
302 1305 10000
257 275 10000
380 426 9999
424 3909 9999
332 606 9999
463 1463 10000
148 2931 10000
300 4301 9999
229 4039 10000
171 1863 10000
196 751 10000
409 4180 10000
422 3038 9999
440 3195 9999
118 4228 10000
111 4286 9999
498 819 10000
191 745 10000
160 2902 9999
1 4082 9999
108 616 10000
238 2563 10000
456 4362 9999
320 3000 9999
205 2626 9999
48 3013 9999
148 1715 10000
89 3109 10000
410 3856 10000
470 1015 10000
22 2849 10000
238 1842 9999
338 2726 10000
58 4676 9999
116 4612 10000
38 4665 9999
429 4167 10000
62 3670 10000
247 717 9999
135 3104 9999
449 4344 9999
224 4632 9999
450 1940 10000
2 4283 10000
398 2092 10000
322 467 10000
155 3602 10000
432 3057 10000
251 1169 10000
442 3718 9999
123 4334 9999
499 3646 10000
172 2277 9999
171 3368 9999
470 667 9999
420 2564 10000
202 3711 9999
353 4486 9999
179 3323 10000
490 3129 9999
363 3346 10000
46 2579 9999
26 3157 10000
65 658 9999
422 3146 9999
177 653 9999
464 2797 10000
142 3589 9999
273 3840 9999
438 2362 10000
369 2747 10000
440 1176 9999
323 3655 9999
407 482 9999
47 481 9999
244 1363 10000
385 3204 9999
144 3244 10000
164 1691 10000
500 4282 10000
492 3301 10000
497 3761 10000
14 1532 9999
270 4902 10000
155 1229 10000
186 4135 9999
478 4505 9999
294 4202 9999
445 1453 9999
96 435 10000
224 946 10000
38 3571 10000
470 2844 9999
292 2131 10000
491 3047 10000
425 1459 9999
263 3440 10000
197 4069 10000
75 460 9999
48 2449 9999
107 4101 10000
373 3111 9999
407 2746 10000
55 2966 10000
132 4464 10000
263 2761 9999
52 2470 9999
29 2779 10000
78 1467 10000
343 2848 9999
37 3827 9999
333 496 10000
16 704 9999
192 2426 9999
229 3551 10000
50 3090 10000
225 1374 10000
187 1646 9999
305 4653 9999
416 954 10000
29 4187 9999
27 1067 9999
8 3555 9999
497 3301 9999
324 4580 10000
169 3730 9999
358 4329 9999
407 4095 10000
26 1302 9999
479 3665 10000
208 751 9999
162 4832 10000
117 1792 10000
199 4924 10000
240 4858 9999
383 1531 10000
429 4266 9999
426 2300 10000
485 1317 9999
21 3232 9999
89 919 10000
193 586 9999
281 3031 9999
266 2046 10000
400 946 10000
17 1647 10000
337 1146 9999
184 3923 10000
479 2615 10000
279 3119 9999
196 1057 10000
460 3283 10000
263 3821 9999
182 3417 9999
120 2411 10000
333 1617 10000
325 4645 9999
398 4171 10000
79 1513 9999
8 4347 9999
463 4190 10000
128 3040 10000
23 183 10000
275 1102 10000
384 3122 9999
2 4186 10000
314 2861 9999
167 3693 9999
106 4442 10000
325 1203 9999
473 2085 10000
55 2942 9999
410 3010 9999
431 4967 9999
198 605 10000
418 2190 10000
460 1663 9999
259 4436 9999
77 4357 9999
165 508 9999
287 755 9999
173 4626 10000
377 1362 9999
341 2255 9999
4 821 9999
468 639 9999
129 658 9999
316 3101 9999
464 3854 9999
207 1415 10000
307 488 10000
205 457 10000
179 865 9999
297 3634 9999
427 4425 9999
74 4356 10000
430 2616 9999
435 3865 10000
160 4045 10000
412 4668 10000
175 4315 9999
331 765 10000
401 2693 9999
147 2885 10000
238 4345 9999
433 4137 10000
298 2756 10000
304 4801 9999
180 3050 10000
465 4518 9999
36 956 9999
245 4184 9999
42 1530 9999
94 3171 10000
141 1750 10000
398 3948 10000
402 4579 10000
183 656 10000
326 4779 9999
455 1128 10000
21 1238 10000
154 1436 10000
33 447 10000
92 2546 10000
319 4095 9999
458 3699 10000
394 4539 9999
215 4290 9999
18 3447 10000
415 4023 10000
212 3442 10000
347 1447 10000
36 4487 9999
259 1495 9999
206 4747 10000
171 524 10000
265 4481 9999
175 1515 10000
33 837 10000
490 3408 9999
480 2198 10000
432 2682 10000
17 2415 9999
366 4984 9999
18 2063 9999
161 3457 10000
388 2344 10000
145 2542 9999
443 1701 10000
470 831 10000
301 1911 10000
453 3292 10000
359 2673 9999
312 4467 10000
127 265 9999
50 2904 10000
458 1144 9999
62 2116 10000
436 2290 10000
163 4494 9999
297 1377 9999
277 707 10000
481 1021 10000
477 704 9999
233 4185 9999
56 724 10000
104 2899 9999
407 3866 9999
491 1968 9999
214 1644 10000
485 4220 9999
319 3474 9999
343 1787 10000
90 4618 9999
389 3535 9999
459 1330 10000
367 1036 9999
79 2549 10000
401 4103 10000
340 3435 9999
286 3773 10000
340 1544 9999
183 313 10000
171 4940 10000
137 2609 10000
131 692 10000
12 4695 9999
489 1253 10000
220 4720 10000
392 2755 9999
110 835 9999
177 4546 9999
159 3534 9999
431 1127 9999
347 4357 9999
105 1174 9999
160 3450 10000
69 3910 9999
323 1160 9999
164 812 10000
121 2135 10000
500 4080 9999
386 4284 9999
393 575 10000
462 4778 10000
213 2151 9999
245 3403 9999
484 2078 9999
398 1498 10000
381 1665 10000
115 3348 9999
402 1084 9999
350 3979 10000
474 1338 10000
300 1762 9999
500 4832 10000
249 4159 9999
301 1727 9999
144 1441 10000
266 561 10000
136 3669 9999
161 2107 10000
315 2526 10000
16 1412 9999
21 1340 9999
388 2494 9999
433 3706 9999
240 3204 10000
63 4636 9999
333 339 9999
222 3537 9999
323 3090 9999
374 2174 9999
169 1058 10000
432 4564 10000
42 1259 10000
376 4708 10000
470 2163 10000
203 4308 9999
354 2503 9999
434 4444 10000
96 248 10000
28 1315 10000
402 935 10000
185 1672 9999
64 4468 10000
48 738 10000
295 1406 9999
162 1760 9999
56 455 9999
23 3020 9999
437 2443 9999
177 1131 10000
71 1915 9999
105 3038 9999
41 2541 9999
282 4778 10000
229 3721 9999
65 1475 10000
386 2673 10000
9 1517 9999
63 199 9999
405 2190 10000
423 3450 10000
195 4420 9999
256 2748 9999
129 1400 10000
285 856 9999
92 479 9999
447 3079 9999
55 3494 10000
11 1853 10000
465 4712 9999
197 3318 9999
317 631 10000
170 2266 10000
323 1721 9999
388 2890 9999
482 905 10000
252 396 10000
383 3447 9999
48 69 9999
269 4758 9999
465 4631 10000
378 3078 9999
352 4459 10000
450 4096 10000
453 1032 10000
417 3688 10000
24 34 9999
94 1220 10000
402 3885 10000
297 3435 9999
303 1452 10000
475 4050 9999
295 4859 9999
317 3536 10000
48 3421 9999
402 1905 9999
216 4431 10000
403 3556 10000
289 3898 10000
20 264 9999
71 904 9999
491 4116 9999
134 2655 10000
47 2044 10000
358 474 9999
192 4174 9999
343 3371 10000
325 1271 9999
266 2398 9999
316 2777 10000
50 2633 10000
45 4666 10000
342 2533 9999
85 2566 9999
229 1371 9999
198 1584 10000
283 4859 10000
92 4116 9999
308 1427 9999
229 2776 10000
231 297 10000
126 278 9999
456 3418 10000
161 2077 10000
393 2961 10000
278 1693 10000
86 4424 10000
436 2353 9999
307 2774 10000
233 644 9999
226 3148 10000
189 1358 10000
38 1651 9999
53 1643 10000
95 3511 10000
446 2518 9999
47 3510 10000
288 3912 10000
364 4136 9999
264 3516 10000
49 3344 9999
22 2447 9999
437 2079 10000
276 1520 10000
111 4147 9999
262 4301 9999
50 4220 10000
6 4211 9999
161 543 10000
22 767 10000
100 3306 10000
37 801 10000
120 637 10000
100 4822 9999
23 4774 9999
124 2669 10000
120 4682 9999
351 2648 9999
139 2656 10000
267 1380 10000
9 3579 9999
122 3762 10000
147 1981 9999
36 3398 10000
417 1181 10000
440 4563 10000
243 4330 9999
470 2354 10000
326 1810 9999
237 4110 9999
142 768 10000
33 3293 9999
145 3174 9999
387 4631 10000
484 2170 9999
299 457 9999
134 805 10000
113 2357 10000
312 1947 9999
25 3210 10000
467 1673 9999
364 4035 10000
277 795 9999
274 368 9999
385 2035 9999
475 2099 10000
332 887 9999
309 3236 10000
441 3320 9999
428 4165 9999
467 1056 10000
404 2446 10000
124 3701 9999
5 4718 10000
357 4385 9999
474 3788 10000
94 4569 10000
304 1678 10000
443 2232 10000
34 1635 9999
324 3075 9999
205 550 9999
144 899 9999
454 3021 9999
176 4427 10000
347 3921 10000
18 695 9999
18 2082 9999
493 2673 10000
292 4467 10000
331 2446 9999
478 2195 9999
68 338 10000
430 2626 10000
80 3045 10000
337 542 9999
148 3376 9999
397 4285 9999
371 2187 10000
177 1393 10000
470 3197 9999
362 3637 9999
47 1686 9999
221 4523 9999
279 2812 9999
235 1323 9999
121 1876 10000
35 971 9999
381 3339 10000
438 3352 10000
195 4266 10000
284 4028 9999
341 1047 10000
100 222 9999
296 1069 9999
83 3515 10000
458 2382 9999
134 4276 10000
439 2894 10000
151 1105 9999
424 3799 10000
398 2889 10000
41 2081 10000
285 1135 9999
9 3168 10000
379 2798 9999
241 1407 10000
460 3034 10000
258 2679 10000
279 1863 9999
367 3642 9999
238 1236 10000
153 3357 9999
465 4994 9999
175 4041 9999
494 2728 10000
267 2921 9999
493 4237 9999
15 4292 10000
320 1457 9999
329 2811 10000
422 4182 10000
349 4297 9999
498 3805 10000
244 3492 10000
312 2561 9999
31 1745 9999
460 2890 9999
37 2693 9999
308 3974 9999
117 4384 10000
429 2473 10000
420 3601 9999
23 4581 9999
349 999 9999
1 821 9999
326 3719 9999
36 3480 10000
35 1188 10000
298 1071 9999
69 1744 9999
98 1566 10000
311 3592 9999
49 2563 9999
443 1517 10000
388 4530 10000
80 4183 9999
280 702 10000
170 1805 9999
313 1889 9999
7 1104 9999
223 1660 9999
19 70 10000
263 1604 10000
458 845 9999
453 4196 9999
143 847 9999
212 2474 9999
255 2571 10000
208 2389 9999
191 4730 10000
335 1012 9999
364 4169 9999
71 987 9999
490 3042 9999
375 4510 9999
40 4611 10000
62 285 9999
97 4489 10000
475 540 9999
174 3838 10000
261 4670 9999
170 1940 10000
238 2110 10000
500 2197 10000
135 3258 10000
383 2987 9999
337 1673 9999
439 2111 10000
42 957 10000
379 839 9999
429 2861 10000
41 2907 10000
358 398 9999
349 3535 9999
311 2634 9999
444 1305 10000
61 3250 10000
176 4647 9999
208 1510 10000
269 361 9999
181 2120 10000
363 3229 9999
95 1649 10000
180 3154 10000
154 4408 9999
163 3785 9999
294 1943 9999
469 3736 9999
384 4666 10000
389 3624 10000
314 2585 10000
10 490 10000
172 3884 9999
206 1081 9999
144 548 9999
156 2228 9999
439 2149 9999
92 1210 9999
64 1080 10000
426 2757 10000
36 900 10000
252 1968 10000
181 4792 9999
29 4487 10000
335 1894 9999
487 3220 10000
445 3041 9999
272 3659 9999
144 1827 9999
459 3539 9999
451 3620 9999
15 4335 10000
189 3486 10000
47 1137 10000
443 475 10000
60 591 9999
2 3712 9999
73 1522 9999
381 4233 10000
282 493 10000
359 4057 10000
81 3716 10000
117 2927 9999
435 883 9999
130 1862 10000
386 1352 9999
140 4255 9999
351 769 9999
264 4372 10000
243 2183 10000
238 3987 10000
300 3827 10000
103 429 10000
142 2712 10000
218 944 10000
188 3878 9999
323 2537 9999
323 360 10000
59 431 9999
393 3206 10000
498 3108 9999
115 345 10000
437 3539 10000
212 301 9999
449 4527 9999
323 3146 10000
472 1220 9999
403 2532 9999
7 1888 10000
12 397 9999
153 2900 9999
327 2230 9999
234 1048 10000
336 2808 9999
443 2751 10000
493 1173 10000
483 1619 10000
292 2063 9999
253 4517 10000
153 4420 10000
455 3749 10000
95 1354 10000
482 3537 9999
307 4389 9999
483 1497 9999
64 1593 10000
188 2158 9999
406 2444 10000
446 2405 10000
225 3369 10000
306 1018 9999
251 3875 10000
29 1900 9999
136 2520 9999
370 4509 10000
498 3475 9999
389 3300 10000
475 4587 10000
164 2099 10000
469 2862 9999
85 3176 9999
162 4683 10000
23 761 10000
480 4075 10000
248 4813 10000
356 2715 10000
402 2214 10000
466 2662 9999
335 4884 9999
358 3499 9999
363 3947 9999
334 733 10000
442 2113 9999
470 1444 10000
456 1659 10000
415 4215 10000
265 3315 9999
374 2841 9999
251 4591 9999
336 571 9999
130 3625 10000
133 815 10000
391 1996 9999
328 4543 10000
333 2251 9999
84 3456 9999
312 3357 9999
498 4158 9999
198 1785 9999
170 1570 9999
495 527 9999
184 2212 10000
295 3673 10000
135 3544 9999
353 4704 9999
346 4495 10000
230 4477 10000
418 2796 10000
370 485 9999
236 2041 10000
213 469 9999
7 4334 9999
195 405 9999
179 891 9999
193 1795 9999
326 4206 10000
404 1099 9999
163 787 9999
59 3390 10000
302 692 10000
162 778 10000
404 4314 10000
316 4332 10000
223 3900 10000
439 3375 10000
8 707 9999
316 4501 9999
99 4043 10000
456 3689 10000
380 2627 10000
263 2364 9999
287 4731 10000
15 3081 10000
315 2506 9999
490 2822 9999
416 4880 9999
240 1235 9999
335 1476 9999
413 1313 9999
73 421 9999
165 4233 10000
178 871 10000
89 1690 9999
291 3758 10000
214 3816 10000
332 4194 10000
114 4566 9999
299 1023 9999
274 4749 10000
351 3826 9999
322 328 9999
484 1982 10000
68 850 9999
404 1535 10000
116 1420 9999
215 2461 9999
278 3694 10000
194 941 10000
287 1321 10000
95 2496 10000
173 4228 10000
188 2941 10000
374 806 10000
178 3121 10000
351 3062 9999
442 3910 10000
469 4293 9999
164 1860 9999
339 1381 9999
379 1776 9999
283 2792 9999
43 3584 10000
341 3893 10000
372 4058 10000
108 4948 9999
362 810 9999
426 4301 10000
134 957 10000
155 3144 9999
454 2280 9999
367 1566 9999
91 3431 9999
399 2296 10000
235 3760 9999
309 3556 9999
456 700 9999
101 1416 9999
103 1468 10000
375 1439 9999
454 984 10000
439 1715 10000
413 2254 10000
433 713 9999
281 483 9999
260 994 10000
434 1530 10000
91 3450 9999
387 3791 10000
386 3499 10000
242 4367 10000
39 3902 10000
447 510 9999
310 2561 9999
361 2667 10000
279 734 9999
48 1415 9999
275 4275 9999
331 1182 10000
268 3808 10000
18 2765 9999
325 2349 9999
100 4686 10000
177 308 10000
340 2145 9999
2 3475 10000
96 4071 10000
498 3004 10000
466 4227 10000
263 4643 10000
399 948 10000
413 2245 9999
429 2091 10000
218 366 10000
484 1847 9999
374 3795 10000
210 3399 9999
104 4682 9999
221 2129 9999
395 1565 10000
401 548 10000
482 2860 10000
391 2682 10000
342 2685 9999
104 3528 10000
498 3866 10000
230 3386 10000
249 966 10000
239 3783 10000
71 1290 10000
439 576 10000
50 125 9999
425 1840 10000
356 2004 10000
255 4503 9999
95 268 9999
251 825 10000
292 2277 10000
63 1408 9999
433 438 9999
54 2163 9999
318 1117 9999
60 3324 10000
366 2312 10000
102 466 9999
393 4646 9999
428 4208 9999
400 1215 10000
100 565 10000
171 1468 9999
388 1235 10000
158 1248 9999
337 4282 10000
362 4462 10000
481 486 10000
258 3419 10000
404 3057 10000
274 826 10000
244 2054 9999
347 4877 9999
321 1052 10000
143 1094 10000
213 1750 9999
376 1517 10000
151 3682 10000
278 1160 10000
251 2583 9999
404 3061 9999
94 2099 9999
259 2797 9999
463 3091 9999
444 3844 10000
5 2608 9999
206 3722 10000
97 918 9999
158 2405 9999
78 642 9999
328 4801 9999
16 347 9999
404 1819 9999
318 4039 9999
201 1753 9999
202 4509 9999
259 4584 9999
410 1424 10000
202 2584 10000
6 760 9999
75 4240 9999
114 276 10000
308 1297 10000
353 2801 10000
437 830 9999
199 4241 10000
470 968 9999
131 3986 10000
126 2319 10000
150 205 9999
97 2762 9999
48 1222 9999
83 1992 10000
126 4214 9999
136 2141 10000
253 4029 10000
275 4265 9999
384 3768 9999
301 2722 10000
298 2133 10000
317 2563 9999
171 4906 9999
117 932 9999
414 2280 10000
396 471 9999
441 961 9999
16 1359 9999
329 2109 9999
103 4758 10000
478 1964 9999
471 3817 9999
306 1391 9999
420 2835 10000
133 3847 9999
285 4504 10000
167 1531 10000
287 2339 9999
364 2369 9999
415 4246 10000
455 2451 10000
441 1828 9999
320 2146 9999
186 4284 9999
266 1217 10000
220 2310 10000
236 2739 9999
83 3004 9999
220 3763 10000
275 3747 9999
230 3533 10000
25 2427 10000
320 2829 10000
379 1893 9999
116 868 10000
449 1654 10000
145 3560 10000
78 3320 10000
450 3248 9999
412 3847 9999
490 3871 10000
329 626 10000
465 4787 10000
167 3064 9999
302 4958 9999
489 3043 10000
310 4028 10000
14 2380 9999
68 4700 10000
390 517 9999
85 796 9999
488 4428 10000
302 2903 10000
352 569 10000
9 4084 9999
12 3395 10000
335 3459 10000
222 3899 10000
29 1344 9999
143 3689 9999
398 3946 9999
170 4006 9999
153 4498 9999
486 1988 9999
144 4381 9999
111 391 10000
348 1463 10000
86 2011 9999
44 521 10000
29 3384 10000
488 1505 10000
261 823 9999
373 1569 10000
317 1905 9999
123 2003 9999
105 1248 10000
102 1054 10000
333 1285 10000
202 1473 10000
99 2117 9999
50 1363 10000
127 1978 10000
433 4839 9999
318 3648 9999
175 4182 9999
75 4210 10000
47 3249 10000
285 3245 10000
296 2046 10000
303 3042 10000
388 4039 10000
62 2208 9999
487 3683 9999
392 3793 10000
63 2059 9999
113 4425 10000
317 396 9999
436 1045 10000
154 609 9999
282 845 10000
61 4551 9999
112 1574 9999
226 1782 10000
499 4865 10000
178 4613 10000
24 4366 9999
138 1247 10000
269 2487 10000
185 631 9999
239 2342 9999
121 2170 10000
383 4481 10000
68 4610 9999
96 3833 10000
432 2822 9999
147 4389 10000
475 2117 10000
318 3045 9999
31 179 9999
260 1944 9999
390 4080 9999
303 4030 9999
198 2567 9999
244 1270 10000
48 2914 9999
152 3168 9999
277 3978 9999
293 673 10000
382 3319 10000
167 4122 9999
168 3675 10000
179 1850 9999
29 4492 10000
487 3795 9999
196 4213 9999
283 2573 10000
444 3069 9999
181 3367 10000
269 1221 9999
142 284 10000
45 4087 10000
495 3587 10000
416 4486 9999
403 2602 10000
40 1125 10000
467 3792 10000
492 1437 9999
263 1703 9999
408 2108 10000
128 4629 10000
36 759 10000
3 2876 10000
382 2154 10000
3 4997 10000
452 1016 9999
330 1714 9999
152 185 9999
371 2459 10000
253 4952 9999
280 1505 10000
20 2042 10000
148 4391 10000
98 4715 10000
319 1365 9999
418 437 10000
456 3332 9999
203 283 9999
424 1729 10000
94 4514 10000
304 4672 10000
164 2607 10000
280 2208 9999
208 266 10000
285 1457 10000
243 3998 9999
53 583 9999
268 1726 10000
204 4683 10000
162 4734 9999
415 736 10000
478 3746 9999
174 3707 9999
118 3467 9999
430 781 9999
90 4562 10000
268 1795 9999
71 3067 10000
297 2093 10000
95 301 10000
287 901 9999
432 780 9999
343 2740 10000
24 2593 9999
19 4529 9999
293 723 10000
133 3758 9999
209 1441 10000
293 1394 10000
108 4127 10000
70 3559 10000
446 3258 10000
212 1500 9999
4 70 9999
175 738 9999
209 3608 10000
394 1295 10000
186 1807 10000
290 2392 9999
113 3300 9999
13 273 9999
137 3156 9999
68 4203 10000
394 446 9999
463 2919 10000
315 4944 9999
196 2840 10000
489 2206 9999
491 3668 9999
290 694 10000
48 3537 10000
13 4615 9999
3 1183 10000
393 4627 10000
55 2575 9999
86 1336 10000
397 2224 9999
144 965 9999
465 967 9999
268 4604 10000
112 4630 10000
68 774 9999
443 4066 10000
54 715 10000
52 4097 10000
134 1837 9999
126 1534 10000
55 1452 9999
482 3685 9999
124 1941 9999
285 1838 10000
314 1722 10000
5 3886 10000
97 4367 10000
161 4622 9999
66 4019 10000
108 3088 10000
233 3594 9999
486 1363 9999
152 2041 9999
289 4655 9999
75 3297 9999
180 371 9999
47 2038 9999
12 2344 10000
19 3733 10000
392 3353 9999
379 4468 10000
178 683 10000
17 1456 10000
424 2680 9999
414 1887 9999
151 1634 9999
391 3394 10000
147 2589 10000
170 983 9999
465 2289 9999
410 427 9999
162 4343 10000
240 931 10000
291 1034 9999
395 3039 10000
445 1001 10000
146 2940 9999
5 4098 9999
116 2585 9999
328 4901 9999
76 1289 9999
64 406 10000
395 414 10000
407 1425 9999
166 1965 9999
350 956 9999
451 4558 9999
424 2993 9999
298 616 9999
242 3998 10000
389 3891 10000
287 1486 9999
414 3949 9999
123 1174 9999
319 3665 9999
345 4827 10000
291 4647 10000
269 2145 9999
302 1615 10000
242 2606 9999
9 845 10000
357 2511 10000
174 3384 10000
410 1297 10000
160 3542 9999
54 2837 9999
370 3661 9999
5 2730 9999
194 2668 9999
152 4678 9999
147 3625 9999
248 4039 10000
13 1578 9999
379 3734 9999
367 4251 10000
398 567 9999
189 3173 9999
416 4965 9999
331 444 9999
8 4543 9999
33 4930 9999
270 4337 10000
200 4009 10000
220 2702 10000
176 3456 9999
370 565 9999
93 3317 9999
107 3387 10000
380 2127 9999
307 3871 9999
40 2885 9999
311 486 10000
199 1386 10000
260 1970 10000
186 4125 10000
262 2286 9999
239 3255 10000
428 3301 10000
325 785 9999
145 4952 9999
130 3750 10000
97 2874 9999
29 1554 9999
142 4641 10000
405 2659 9999
273 2465 9999
92 1880 10000
477 3054 10000
244 1092 10000
197 3922 10000
389 1619 10000
60 3046 9999
2 4398 10000
267 3865 10000
98 1359 9999
112 3255 10000
241 2833 9999
463 3389 10000
465 4358 9999
151 2635 9999
167 1853 9999
410 914 10000
477 2670 10000
188 4978 9999
127 285 9999
65 494 9999
299 3122 10000
426 4934 9999
128 464 9999
455 4578 10000
379 4443 10000
140 1354 10000
359 4884 10000
451 846 10000
383 858 9999
104 1570 10000
388 2572 9999
255 3445 9999
71 1264 10000
352 4554 9999
484 752 10000
223 3728 9999
63 3745 10000
370 1654 9999
81 1216 10000
439 1670 10000
186 2179 9999
420 1841 9999
321 917 9999
65 4408 9999
106 4615 10000
106 1900 10000
44 3873 9999
15 570 9999
416 1433 10000
377 3222 10000
122 3971 9999
201 2851 10000
309 437 9999
163 1723 9999
256 1658 10000
90 2128 10000
314 4891 10000
363 3467 9999
305 4173 10000
70 3079 10000
289 493 10000
417 2615 10000
278 1249 10000
244 3450 10000
269 3009 10000
4 3315 10000
99 3492 9999
373 657 9999
178 4748 9999
203 1529 9999
271 3462 9999
290 1250 9999
15 3394 9999
304 3600 9999
495 3976 9999
135 3869 10000
232 4500 10000
61 1434 9999
255 2983 9999
57 2358 10000
79 689 9999
47 3843 9999
164 1427 10000
98 2575 10000
130 518 9999
403 2772 9999
9 4295 9999
373 4201 10000
115 2639 9999
421 3370 10000
302 3330 9999
247 3170 9999
432 485 10000
344 3689 9999
66 2332 9999
413 1734 9999
439 4271 9999
236 3654 10000
78 1624 10000
123 769 10000
498 2839 10000
236 4843 10000
355 2475 9999
290 4806 9999
393 4115 9999
226 3962 9999
223 258 9999
422 2175 10000
119 2950 10000
112 3048 9999
291 3841 10000
311 2748 9999
316 559 9999
448 3871 9999
422 1720 9999
359 1077 10000
273 1261 9999
327 4781 9999
104 1826 9999
221 1666 9999
43 1329 9999
249 744 10000
80 343 9999
22 794 9999
57 3861 10000
306 1996 10000
40 3074 9999
248 4523 10000
421 4161 10000
254 1449 9999
159 3429 10000
473 1648 9999
163 4641 9999
25 2778 9999
449 2643 10000
11 4019 10000
303 4289 10000
13 3417 9999
234 2065 9999
310 1883 9999
462 3131 10000
99 2400 9999
478 3864 9999
211 3848 10000
394 2850 10000
355 3202 10000
106 3795 9999
249 4448 9999
324 2434 10000
65 1433 9999
121 2868 9999
76 2455 9999
96 781 9999
412 2772 9999
372 1368 10000
70 2581 10000
251 2184 10000
492 2882 10000
20 1921 10000
195 2856 10000
279 4893 10000
83 3615 10000
449 2826 9999
136 4790 10000
409 2993 10000
477 3062 9999
277 1682 10000
302 2852 9999
185 1653 9999
246 3879 9999
189 3255 10000
303 1994 10000
56 288 10000
24 1949 9999
170 2784 10000
299 3970 9999
195 485 9999
315 2816 9999
270 1176 9999
126 1008 10000
48 3427 10000
278 1773 10000
481 2162 10000
117 3406 10000
421 2443 9999
152 3831 10000
194 2205 10000
87 2983 9999
477 771 10000
146 280 9999
165 2102 10000
343 2256 10000
414 3184 9999
432 4684 10000
484 2978 9999
426 3256 9999
477 3168 9999
289 4605 9999
187 4306 9999
5 3489 9999
496 1518 10000
96 1181 9999
210 1086 10000
126 3299 10000
19 739 10000
12 711 9999
102 881 9999
488 4102 9999
124 624 9999
116 460 9999
256 1583 9999
326 490 9999
395 4363 9999
484 2793 9999
183 4286 10000
378 942 9999
234 1134 9999
157 1504 10000
481 555 10000
285 1274 9999
386 2170 10000
452 3431 9999
47 3341 9999
481 2258 10000
289 663 9999
307 1979 10000
361 1139 10000
228 4103 9999
331 1380 10000
421 3812 10000
27 4663 9999
208 1177 10000
219 4328 9999
401 2763 9999
362 2770 10000
238 3986 10000
197 3749 9999
258 1324 10000
265 1922 9999
455 2573 10000
163 4466 10000
6 1663 9999
322 3499 9999
73 1709 10000
157 4629 10000
394 2636 10000
372 1990 9999
364 4780 9999
48 1927 9999
202 3820 9999
373 1494 9999
20 3870 10000
150 2159 10000
74 2911 9999
417 1411 10000
172 2958 9999
409 1417 10000
470 2101 10000
167 2558 10000
479 1418 10000
213 1206 9999
375 3773 9999
97 2998 10000
143 256 9999
383 2586 10000
150 4106 10000
314 4802 9999
70 4870 9999
19 4626 9999
54 1097 9999
220 759 10000
466 2364 9999
203 479 10000
361 4799 9999
193 2785 9999
101 1580 9999
225 931 9999
474 1832 10000
194 2852 9999
155 4919 9999
120 4875 10000
427 2444 9999
409 4403 9999
486 638 10000
25 3399 9999
257 3329 10000
71 3503 10000
86 2740 9999
42 384 10000
194 4475 9999
3 2033 10000
371 832 10000
223 2102 9999
51 229 9999
53 1057 9999
418 1687 9999
49 1467 9999
40 4440 10000
98 2581 9999
229 3334 10000
465 4276 9999
205 2016 10000
329 2387 9999
274 946 10000
280 3987 9999
223 4184 10000
259 4313 10000
107 665 9999
415 3784 9999
14 4999 9999
16 1543 10000
129 1181 10000
390 1854 10000
77 866 10000
457 3987 9999
301 1624 9999
431 2527 10000
372 1150 9999
393 2860 10000
458 3808 10000
325 2413 9999
50 4797 10000
179 790 10000
272 3963 9999
487 1599 9999
444 2260 9999
244 2342 9999
102 3454 9999
147 4115 10000
444 4355 10000
42 3707 9999
160 4909 10000
323 663 10000
414 4539 10000
410 2206 9999
439 1564 9999
474 2727 10000
473 894 9999
422 2869 10000
80 1194 10000
50 1717 9999
373 3141 10000
458 3125 10000
416 799 10000
379 1356 10000
261 1717 10000
123 2655 9999
196 3575 9999
429 1986 9999
402 1091 9999
255 1198 10000
5 4144 10000
473 4015 10000
363 1296 9999
21 4058 9999
288 2391 10000
161 2783 9999
347 3181 9999
455 3970 10000
200 2673 10000
188 522 10000
156 1858 9999
115 3168 9999
493 4091 9999
99 3598 9999
375 2783 9999
48 713 9999
117 788 9999
64 3746 9999
135 2490 9999
49 2260 9999
152 4767 10000
390 1267 9999
371 3864 9999
386 2042 9999
471 2866 10000
155 3032 9999
168 4455 9999
190 4347 9999
282 2977 9999
72 392 10000
261 1125 10000
186 1449 10000
456 2946 10000
245 1865 10000
5 1437 10000
444 4328 10000
115 3693 9999
349 1389 10000
180 1618 9999
168 1595 10000
338 4575 9999
158 4227 10000
298 4492 9999
121 698 10000
21 2662 9999
417 4603 9999
449 2416 10000
490 619 10000
495 2355 10000
95 1831 9999
431 1214 9999
359 1489 9999
413 577 9999
492 4546 9999
393 909 10000
161 652 10000
215 1220 10000
472 2665 9999
498 2682 9999
389 2170 10000
26 1518 9999
220 4435 9999
274 3303 10000
365 3423 10000
149 4070 9999
377 4871 10000
143 2102 10000
50 844 10000
114 2152 10000
368 3283 9999
229 4724 10000
337 4652 10000
409 1125 10000
131 2637 10000
186 4802 9999
246 3992 9999
262 522 9999
255 319 10000
300 3630 10000
480 724 9999
362 3367 10000
229 1280 10000
342 630 9999
456 4225 9999
120 3072 9999
190 4633 10000
125 968 10000
247 2776 10000
172 389 10000
341 3594 9999
300 553 9999
89 4700 10000
167 4870 10000
36 4794 9999
190 1983 10000
81 844 9999
366 4714 9999
127 4707 9999
201 904 9999
138 4653 9999
284 601 9999
234 4795 9999
491 4872 10000
362 4465 10000
406 634 10000
320 3794 9999
456 2155 10000
136 4584 10000
219 1772 9999
332 2923 10000
496 3263 10000
450 825 9999
237 834 10000
302 3815 10000
111 1648 9999
302 4640 10000
271 1911 10000
270 2453 9999
58 918 9999
275 4267 10000
451 2397 9999
332 4224 10000
42 3766 10000
444 3506 9999
303 2577 9999
395 4298 10000
298 2374 9999
261 3290 10000
240 2339 10000
389 2667 9999
352 2887 10000
329 2090 9999
311 1599 9999
271 752 9999
276 3821 10000
485 2931 10000
300 1466 9999
295 498 9999
472 1673 9999
487 1890 9999
352 2009 9999
1 507 10000
286 4508 9999
135 3613 10000
259 1475 10000
62 1941 9999
174 3767 9999
263 678 10000
434 4702 10000
294 4963 10000
312 393 10000
446 1271 10000
304 3571 10000
135 3209 10000
386 1760 10000
56 3223 9999
489 4897 9999
55 2308 10000
371 3932 10000
366 1096 9999
411 3679 9999
101 1003 10000
129 3612 10000
352 1568 9999
357 2306 9999
409 4355 10000
22 102 10000
79 3802 9999
165 3732 10000
217 3681 10000
331 3164 9999
5 2259 9999
164 4091 9999
176 1668 9999
313 952 9999
41 936 10000
470 4054 10000
450 4620 9999
455 3541 9999
244 4505 9999
450 5000 9999
386 392 9999
23 653 9999
292 4896 10000
265 2280 10000
351 4041 9999
86 3059 10000
438 3408 10000
136 4394 9999
191 3313 9999
297 4336 9999
255 4029 10000
437 2554 9999
17 3345 10000
275 2088 9999
423 1516 10000
463 1638 9999
399 2028 9999
483 4993 9999
223 2936 10000
197 2814 9999
302 4201 10000
257 2450 9999
460 556 10000
298 4118 9999
348 4465 10000
349 2530 9999
192 4570 9999
37 3130 9999
190 4967 9999
243 4582 10000
411 3861 10000
51 3205 9999
353 3692 9999
152 2376 10000
343 3063 9999
125 3878 10000
290 4091 9999
151 3471 9999
45 1903 9999
152 1210 9999
434 676 10000
425 2706 10000
282 2207 9999
370 2747 9999
132 4709 9999
240 989 9999
166 2282 9999
416 4249 9999
126 2242 9999
339 3147 10000
143 783 9999
18 3381 9999
437 2733 9999
344 2436 9999
42 4196 10000
127 643 9999
378 2888 9999
188 2525 10000
70 4246 10000
391 2757 10000
339 387 10000
401 471 10000
381 3389 10000
411 4806 9999
331 3941 9999
123 2255 10000
270 1176 10000
321 3974 9999
24 4092 9999
268 1930 10000
431 2349 9999
409 3855 9999
149 1632 10000
406 2172 9999
222 905 9999
102 4472 9999
107 4062 9999
328 872 10000
446 4474 10000
58 2581 10000
443 3161 10000
399 1654 9999
496 2289 10000
385 3867 9999
176 4478 10000
268 3670 10000
227 434 10000
452 2567 10000
337 4154 10000
34 1800 10000
439 2516 9999
21 1610 9999
335 939 10000
18 3119 10000
127 1117 10000
142 2375 9999
350 1240 9999
117 2047 9999
475 1815 10000
410 531 10000
359 2258 9999
79 382 10000
473 2893 10000
147 4363 9999
233 2948 9999
200 2885 9999
102 795 10000
181 3055 9999
70 4070 9999
205 3083 9999
124 2343 10000
158 3640 10000
338 853 9999
480 3971 9999
350 1976 10000
125 3379 9999
375 3020 10000
10 4370 9999
8 293 9999
148 312 9999
107 3837 10000
243 1170 10000
67 1742 10000
404 811 10000
24 4060 10000
218 2921 10000
136 3780 10000
360 1188 10000
94 781 10000
182 813 9999
18 617 9999
232 2309 10000
421 621 10000
31 796 9999
196 4358 9999
223 2757 9999
279 1860 10000
423 3047 10000
278 3064 9999
118 764 10000
373 3668 10000
76 1218 10000
290 3197 10000
345 4592 10000
338 4236 9999
83 3728 10000
299 4111 9999
62 500 10000
264 2206 10000
146 1840 10000
127 181 10000
413 1414 10000
326 3927 10000
243 2649 10000
488 591 9999
397 2881 10000
304 4121 10000
458 3709 9999
12 796 10000
336 3417 9999
99 3604 10000
227 3711 9999
477 3753 10000
39 4428 9999
11 2411 10000
189 3521 9999
95 3250 10000
143 1701 10000
481 1232 9999
39 3922 9999
247 2015 9999
159 2933 9999
350 726 10000
102 1495 9999
313 802 9999
392 1634 9999
309 2212 10000
378 3305 9999
204 2660 9999
194 2864 10000
358 1367 10000
295 4864 9999
238 618 9999
437 1328 9999
266 3253 9999
370 2497 9999
483 3808 10000
44 2231 10000
222 889 9999
1 2906 9999
180 4780 9999
148 3294 9999
487 1931 10000
111 4608 9999
496 4757 9999
407 4988 10000
224 3755 10000
107 3446 9999
221 3246 10000
470 512 10000
37 4542 10000
470 3335 10000
299 1450 10000
414 4303 9999
177 3560 9999
349 3186 10000
262 3540 9999
21 1524 10000
169 4050 9999
404 4529 10000
113 3710 10000
392 2144 9999
476 1233 10000
276 1061 9999
6 1158 9999
276 4213 10000
234 1118 10000
391 2033 10000
490 4569 10000
6 3745 10000
281 1579 10000
35 615 10000
455 4280 9999
175 3485 10000
373 3249 10000
373 1970 10000
279 3328 10000
86 2661 10000
363 4054 10000
371 4256 9999
204 1373 10000
127 1540 10000
5 3266 9999
395 4112 10000
92 2387 10000
436 1246 9999
59 2849 10000
299 3627 10000
41 3491 10000
442 3288 10000
355 3661 10000
9 4814 10000
170 4867 9999
78 573 9999
43 3512 10000
425 2667 10000
92 1914 10000
10 1299 9999
309 3087 9999
208 2646 9999
463 3727 10000
305 2693 9999
473 4270 10000
383 1145 10000
440 4230 9999
70 2462 9999
232 486 10000
355 2308 10000
439 1931 10000
490 4241 10000
107 667 10000
156 2766 10000
258 4948 9999
381 2598 10000
104 2516 10000
436 3963 9999
322 4535 10000
47 4043 9999
50 997 10000
228 3434 10000
464 1502 9999
412 814 10000
63 4764 10000
488 2952 10000
321 1927 9999
379 631 9999
35 2339 10000
187 2186 9999
48 2158 10000
146 1357 10000
106 931 10000
284 3995 9999
410 802 9999
169 4917 9999
139 4274 9999
363 4302 10000
456 3676 10000
445 4369 9999
219 2095 9999
433 1609 10000
376 3728 9999
180 1918 10000
176 1252 10000
93 3026 9999
181 2629 9999
59 2581 9999
140 1247 10000
7 1275 9999
393 4953 9999
238 3767 9999
391 4667 9999
164 1746 9999
143 1509 9999
403 2789 10000
466 3948 9999
62 170 9999
353 1372 10000
442 774 9999
36 4341 9999
468 4433 9999
436 1569 10000
428 4099 9999
458 2529 10000
317 4438 10000
294 1884 9999
319 4342 10000
469 4004 9999
241 2711 10000
479 3204 10000
67 1176 9999
201 4295 9999
209 2542 10000
318 1478 9999
463 2952 9999
285 2484 10000
368 4985 10000
424 4239 10000
479 3772 10000
217 3244 9999
36 3366 10000
184 2167 9999
314 2293 10000
100 971 10000
225 2515 10000
396 2127 10000
392 3121 10000
60 4969 9999
23 4227 9999
452 4867 9999
184 2911 9999
144 550 10000
83 1396 10000
439 2490 9999
483 614 10000
96 4074 10000
45 697 9999
380 2422 9999
239 4265 10000
203 1519 10000
74 1410 9999
431 3345 10000
240 3793 10000
481 3373 9999
192 2215 9999
381 1770 10000
188 3015 10000
338 2582 10000
49 4206 10000
421 4825 9999
80 1105 9999
423 1788 10000
66 4559 10000
123 3121 10000
101 687 10000
28 1364 9999
45 2110 10000
60 4455 10000
373 779 10000
5 2970 9999
374 1935 10000
223 1298 9999
49 2554 9999
418 3618 9999
303 4803 9999
161 1103 10000
223 4066 10000
4 1126 9999
442 1020 10000
218 3173 10000
450 505 9999
469 1506 9999
450 4194 10000
339 2763 9999
390 2048 10000
451 1019 9999
70 4090 10000
330 2492 9999
409 2985 10000
64 4602 9999
374 1938 10000
454 961 9999
137 1233 9999
78 4784 9999
226 4312 10000
43 1524 10000
36 2814 9999
390 4438 10000
263 4943 9999
281 4220 9999
304 1818 10000
320 851 9999
413 4349 10000
98 4884 9999
370 581 10000
231 4401 10000
258 2597 9999
467 4703 10000
383 4506 10000
195 506 9999
178 2895 9999
251 1148 9999
156 1320 10000
71 2231 10000
24 916 10000
212 2429 9999
182 2987 10000
393 1515 9999
74 2736 9999
392 2037 10000
469 2030 9999
322 3579 10000
359 3758 10000
107 659 10000
253 782 10000
212 2662 9999
452 1094 10000
199 1216 9999
448 947 9999
461 2932 10000
64 3643 9999
195 1842 10000
162 2954 9999
314 1383 10000
138 3313 10000
482 4820 10000
211 748 9999
116 1673 10000
468 1559 10000
470 939 10000
200 3424 9999
416 3438 10000
487 3566 10000
14 2237 9999
335 834 10000
72 244 9999
339 4268 9999
99 1483 10000
49 2711 9999
67 2978 9999
262 621 10000
415 3192 9999
375 2637 9999
384 4062 9999
211 927 9999
177 3713 9999
63 2838 9999
265 1960 9999
424 774 9999
252 1191 9999
261 790 9999
352 4183 10000
55 2456 9999
139 998 10000
53 2758 10000
49 4306 9999
436 3924 10000
487 4518 9999
149 3332 10000
360 2947 9999
3 4863 10000
285 3075 10000
70 4039 10000
494 1962 9999
148 3331 9999
274 2045 9999
169 1196 9999
131 2269 10000
357 4719 10000
306 3070 9999
431 3470 10000
187 1709 10000
55 4776 10000
52 344 9999
389 3351 10000
241 1153 10000
382 527 9999
116 4181 10000
66 2630 10000
460 3465 9999
308 2423 9999
98 1617 10000
231 1129 10000
73 4566 9999
169 2753 10000
37 4622 9999
26 541 9999
354 1104 10000
202 2886 10000
112 4035 9999
90 4043 10000
486 3363 10000
494 3268 9999
473 3609 9999
124 292 9999
140 4683 10000
374 2268 9999
11 809 9999
329 4535 9999
335 3262 9999
34 2231 9999
280 1673 9999
332 1393 10000
324 1126 9999
151 2939 9999
438 1261 10000
216 2159 9999
437 3710 9999
415 3502 9999
17 3392 9999
59 2490 9999
101 4054 10000
469 2415 9999
488 4436 9999
361 4433 10000
47 651 10000
123 1955 9999
286 4872 9999
426 2064 9999
250 2226 9999
196 3476 10000
303 4116 9999
125 2134 10000
36 3118 9999
52 2218 9999
277 3219 9999
391 2481 10000
204 2941 9999
112 1397 9999
7 3132 9999
99 422 10000
333 1245 10000
278 4954 9999
491 850 9999
403 916 9999
368 4976 9999
291 3081 9999
484 4682 9999
86 2275 9999
188 1605 9999
141 2425 9999
118 4487 10000
402 2312 10000
236 2672 9999
25 349 10000
374 3740 10000
145 2246 10000
200 4778 9999
132 1970 9999
102 4873 9999
233 1629 10000
254 3365 9999
325 3511 10000
241 4688 9999
78 1714 9999
244 2899 10000
466 1691 9999
428 4825 9999
300 4269 10000
179 452 9999
60 4657 9999
317 2017 10000
6 2232 9999
35 4394 10000
380 3327 9999
272 3693 9999
177 3782 9999
488 794 10000
50 908 10000
42 4664 10000
99 4967 10000
88 3107 9999
345 1727 10000
332 2739 10000
186 1331 10000
137 3960 9999
192 1842 9999
463 1242 9999
413 2793 9999
81 3314 9999
258 2028 10000
117 3337 9999
182 708 9999
401 1374 10000
105 1605 10000
423 3620 9999
305 1461 10000
274 2690 9999
296 4696 10000
354 2127 9999
264 4216 9999
375 2803 10000
414 917 9999
6 1836 9999
56 1201 9999
347 2132 9999
389 913 10000
278 3094 10000
40 2111 10000
41 3347 10000
173 3537 10000
164 3102 9999
351 3587 10000
455 511 9999
4 4841 10000
337 500 10000
403 3631 9999
26 4294 9999
60 2765 10000
353 1643 10000
221 3360 10000
255 4883 10000
188 3573 9999
442 4388 10000
46 1749 10000
131 1313 9999
297 689 9999
176 4579 10000
254 3999 10000
316 814 9999
234 4519 10000
406 4514 10000
327 3430 9999
192 387 9999
426 1020 10000
41 759 9999
141 3345 10000
351 2497 9999
178 1586 10000
16 3801 10000
450 2700 9999
397 604 9999
218 3159 10000
474 3221 10000
422 4957 9999
243 2228 9999
295 2581 9999
487 3785 10000
17 2386 10000
111 1485 9999
363 1328 10000
497 1643 10000
22 3405 9999
208 4560 10000
447 1576 10000
426 4164 9999
107 4332 10000
383 4487 10000
159 359 9999
35 2121 9999
322 2209 9999
285 1118 10000
452 2328 9999
208 402 9999
150 4328 10000
241 4267 9999
345 4443 9999
375 4742 9999
300 3329 9999
407 2086 9999
332 2834 10000
278 4390 10000
20 2717 9999
175 4116 9999
492 3978 9999
222 1083 9999
413 2817 9999
109 4058 9999
409 518 9999
338 2039 9999
360 1603 10000
43 190 9999
151 1165 9999
379 4692 10000
220 1201 10000
355 1555 10000
90 3069 10000
383 594 9999
317 409 9999
193 601 10000
41 3623 10000
298 4306 10000
415 3585 9999
263 2607 9999
366 2488 10000
40 3882 9999
404 3628 10000
388 3879 10000
237 3640 10000
66 920 10000
134 4681 9999
108 1407 10000
205 2753 9999
257 3861 10000
271 4890 9999
77 2144 10000
479 4915 9999
253 1933 9999
494 2820 10000
401 3651 9999
123 1428 9999
439 4175 9999
257 1258 10000
253 2341 9999
269 2355 10000
442 552 10000
433 3469 10000
108 771 10000
402 3257 10000
240 3822 10000
431 1621 9999
465 2147 10000
1 607 10000
141 288 10000
425 4240 9999
94 4247 10000
20 1460 9999
71 2756 9999
410 650 10000
269 520 10000
350 3766 9999
217 2085 9999
133 3302 9999
244 3427 10000
18 830 9999
398 4073 9999
318 3740 9999
34 4160 9999
316 4384 9999
256 2083 9999
398 2220 9999
231 1816 10000
264 1417 10000
92 4384 9999
133 1863 9999
12 4046 9999
204 803 9999
411 963 10000
225 4927 9999
419 4429 10000
89 3275 9999
335 3338 9999
135 2740 10000
268 2191 10000
438 2906 10000
115 3834 10000
430 2781 9999
85 4566 9999
160 2640 10000
101 556 10000
1 1513 9999
311 1801 9999
72 4301 10000
355 1066 9999
455 3061 10000
352 1316 9999
158 2870 9999
271 3391 9999
322 2972 10000
154 4330 9999
217 1982 9999
97 974 9999
283 2235 10000
475 1835 10000
174 4420 10000
80 1674 10000
314 557 9999
351 610 9999
380 1882 10000
300 3366 9999
471 2489 10000
367 4002 9999
29 1587 9999
426 1066 9999
32 3411 10000
153 3319 9999
349 4281 10000
487 1038 9999
161 837 9999
320 3160 10000
245 3769 10000
408 4846 9999
91 3681 10000
73 666 9999
119 4506 10000
276 448 10000
459 3706 9999
402 3383 9999
116 175 10000
307 3965 9999
218 1574 9999
420 4015 9999
401 4529 9999
168 4796 10000
341 2428 10000
479 4800 10000
423 863 9999
147 3440 10000
259 1142 9999
471 4588 10000
257 3418 10000
443 4993 10000
256 705 10000
187 3023 10000
40 4794 10000
352 781 10000
118 1100 9999
20 1392 10000
82 3973 10000
60 1847 10000
444 4074 10000
432 499 9999
457 3121 10000
129 1574 10000
497 3671 9999
14 4859 9999
243 4948 10000
125 3248 10000
278 1180 9999
95 3965 10000
376 1242 10000
197 236 10000
245 4622 10000
294 2134 10000
409 3615 10000
251 3723 10000
472 2506 9999
260 3866 10000
300 4301 9999
347 1839 9999
114 2405 9999
85 4951 9999
262 2519 10000
22 3394 10000
400 3079 9999
478 4883 10000
237 4409 10000
207 4461 10000
360 3939 9999
319 4951 9999
466 1580 9999
171 4754 10000
154 3782 10000
188 680 9999
352 3194 10000
218 2795 10000
489 4947 10000
118 4111 9999
73 4267 10000
27 561 9999
71 4108 10000
323 2244 10000
193 703 10000
274 3667 10000
251 3266 9999
467 4140 10000
325 2602 9999
61 586 10000
265 3275 9999
298 3275 10000
407 2782 10000
447 3314 10000
300 753 9999
260 3831 9999
6 600 10000
96 4958 9999
117 4621 9999
490 3944 9999
124 4543 10000
238 4619 9999
128 1425 9999
302 1532 10000
306 1984 10000
441 794 9999
107 3977 9999
250 4277 9999
39 3660 10000
286 2530 9999
92 3868 10000
490 750 10000
452 1737 10000
181 944 9999
91 1056 9999
338 3294 9999
119 261 9999
207 1482 10000
400 4363 9999
21 2787 10000
397 2266 9999
175 3893 10000
60 2490 10000
81 652 10000
260 2869 10000
282 1999 9999
54 1321 9999
389 2902 9999
324 4394 10000
130 3034 10000
175 2315 10000
117 3403 10000
428 2384 10000
384 770 9999
490 3051 10000
30 1478 9999
131 4909 9999
476 1945 9999
409 3467 9999
348 2236 10000
192 3196 9999
65 1538 9999
91 2629 10000
314 1122 10000
438 1667 9999
75 1013 10000
488 4571 9999
146 1999 10000
399 4916 10000
480 1442 10000
10 3189 10000
482 936 9999
478 3804 9999
330 536 10000
254 2665 10000
326 2575 9999
10 3857 9999
162 1043 10000
467 2776 10000
53 3769 9999
185 465 9999
237 1921 10000
53 3686 9999
17 378 10000
385 4372 9999
420 1454 10000
442 1175 10000
387 1593 10000
294 4911 10000
89 3660 9999
316 1856 10000
451 3528 10000
418 2514 10000
241 1927 9999
341 3011 10000
381 3013 10000
73 4335 9999
137 2856 9999
369 391 10000
136 638 10000
204 432 9999
465 934 9999
171 4731 9999
88 2284 10000
471 4278 10000
254 3861 9999
249 3177 9999
341 569 9999
455 475 9999
316 4706 9999
403 2655 10000
434 3255 9999
266 1415 9999
60 1199 9999
171 1975 10000
270 3620 9999
196 3193 10000
464 3078 10000
17 1017 9999
425 1743 10000
269 4994 9999
176 1652 10000
423 1978 10000
162 3494 9999
79 3879 10000
300 3035 10000
483 4481 10000
400 4565 9999
464 3169 10000
105 4941 9999
52 2020 9999
106 890 10000
224 1290 10000
47 4275 9999
141 4776 9999
438 4104 9999
399 2785 9999
472 4322 9999
61 142 9999
466 3249 10000
454 3890 10000
291 4285 9999
18 3982 10000
223 1500 9999
221 4973 10000
447 1715 10000
377 4658 9999
283 3300 10000
426 1217 9999
173 3747 10000
465 4953 10000
86 974 10000
284 1388 9999
357 3698 9999
54 4831 9999
392 3260 9999
45 3142 9999
476 2745 9999
407 3591 9999
36 128 9999
176 1288 9999
419 1689 9999
397 846 10000
107 667 10000
6 2618 10000
188 1434 10000
42 4056 9999
384 3867 10000
314 1799 9999
396 1076 10000
301 3563 9999
432 1095 9999
126 3045 10000
246 2354 10000
332 3969 9999
233 1390 10000
134 312 9999
482 4279 9999
418 3219 9999
265 2700 10000
188 1246 9999
329 1840 9999
121 4873 9999
38 3839 10000
22 3867 10000
193 4926 10000
271 4028 9999
325 3859 9999
141 3047 10000
169 1773 9999
231 3159 9999
140 1348 9999
452 1849 9999
317 774 9999
402 3404 9999
336 3491 10000
185 2333 10000
465 3273 10000
223 991 9999
290 1688 10000
190 2783 10000
272 3527 9999
7 1163 9999
171 1956 9999
203 1585 10000
455 1120 9999
75 698 9999
49 1201 9999
289 2420 9999
461 3308 10000
92 4645 9999
456 3493 9999
383 2706 10000
130 4359 9999
393 1945 9999
140 2067 10000
180 1279 10000
339 4173 9999
58 4136 9999
359 3172 9999
166 383 10000
138 700 10000
154 2478 10000
325 3351 9999
74 4138 9999
135 1383 9999
437 3885 9999
431 2383 10000
232 4947 9999
495 3412 9999
207 4582 10000
36 1299 10000
319 1834 10000
242 2210 9999
34 4069 10000
218 3763 10000
60 2347 10000
389 3781 10000
476 782 9999
405 3809 10000
205 2727 9999
85 1783 10000
365 3115 9999
401 573 9999
185 3803 10000
447 3291 9999
154 846 10000
314 642 9999
139 1543 10000
288 4748 9999
340 1027 10000
363 2566 9999
481 3910 9999
351 781 10000
464 2381 9999
500 3333 9999
167 1373 9999
17 4214 10000
348 4697 10000
485 4729 10000
368 1787 9999
317 3193 10000
309 402 10000
415 3834 9999
139 2654 10000
216 3112 9999
249 1216 10000
485 4381 9999
161 2332 10000
187 1560 9999
232 3579 9999
433 683 10000
72 1079 10000
3 4111 9999
428 3422 10000
3 4230 9999
438 3676 10000
177 2030 10000
228 4745 10000
427 3413 10000
475 3638 9999
497 1562 9999
157 191 9999
430 3891 10000
489 1632 9999
161 4254 10000
390 4394 10000
441 2172 10000
452 1688 10000
473 1558 9999
327 4449 9999
273 1950 9999
287 2062 9999
179 346 10000
33 1576 10000
489 2689 10000
182 4787 10000
448 4605 9999
368 1242 10000
101 3244 10000
180 1099 10000
256 2816 9999
455 815 9999
52 843 10000
487 2542 10000
330 4252 10000
362 4485 9999
15 4836 9999
64 1885 9999
41 236 9999
12 1682 10000
218 1722 10000
265 4669 9999
372 3574 9999
32 4867 9999
140 523 9999
42 2518 9999
83 3032 10000
60 1743 10000
485 544 10000
380 3370 10000
311 2450 9999
424 2647 9999
43 4654 9999
465 3428 10000
20 479 10000
62 453 10000
121 2977 10000
113 4049 9999
473 2329 10000
497 2249 10000
220 4518 9999
332 843 9999
90 3364 9999
332 2266 10000
383 1360 9999
33 804 10000
230 4251 9999
424 3009 10000
56 1438 9999
297 4852 9999
37 362 10000
360 2782 9999
360 3978 9999
251 532 10000
103 3566 9999
468 4372 9999
101 4563 10000
477 1011 9999
236 999 10000
9 3477 9999
274 1467 9999
278 2535 9999
444 3450 10000
76 2246 10000
46 131 9999
330 428 10000
191 2173 9999
239 3410 9999
194 2781 9999
20 4319 9999
97 4286 10000
41 4753 9999
99 3941 9999
357 403 9999
375 3916 9999
487 2145 9999
205 1328 10000
5 2302 10000
442 3796 10000
250 1514 9999
218 3099 10000
47 672 10000
413 4551 9999
77 4191 10000
75 843 9999
77 2204 10000
143 1894 10000
125 3426 10000
409 2390 10000
200 4713 10000
36 3633 9999
80 3093 10000
236 1746 10000
353 3591 10000
63 1240 9999
486 4985 9999
235 3159 9999
171 3066 10000
48 2603 9999
48 3556 10000
180 3606 9999
31 4211 9999
243 1345 10000
349 770 9999
408 425 9999
358 4245 10000
428 2868 9999
406 552 10000
197 4602 9999
380 4774 10000
426 1776 10000
66 599 9999
440 684 10000
80 182 9999
72 4525 9999
19 1214 9999
315 1439 10000
304 3019 10000
19 4570 9999
274 2796 10000
374 1542 10000
111 3568 10000
351 1016 9999
250 3981 10000
5 189 10000
30 2893 10000
152 2641 9999
344 3515 10000
118 4772 10000
473 756 9999
377 2434 9999
184 3828 10000
11 905 10000
221 2020 9999
217 2034 9999
412 4402 9999
357 4206 9999
268 4749 9999
350 2587 10000
451 4823 9999
97 870 9999
253 3698 10000
243 1739 9999
381 1547 9999
323 2221 9999
234 872 9999
365 773 9999
359 3188 10000
159 3606 10000
483 2455 9999
259 2528 9999
350 2722 10000
322 2258 10000
259 1068 10000
445 3131 10000
387 4044 9999
333 4940 10000
229 1916 9999
135 2017 9999
99 3449 10000
90 4055 10000
435 588 10000
480 4633 10000
25 3910 9999
410 1888 10000
154 305 10000
226 4529 9999
100 2520 10000
224 368 10000
382 3341 9999
320 4429 9999
201 2792 9999
417 3825 9999
425 492 10000
486 1340 9999
53 3250 10000
388 3814 9999
372 2670 10000
258 2839 10000
77 4952 9999
454 950 10000
68 2685 9999
343 4001 9999
267 4472 10000
76 2158 10000
230 1098 10000
364 2745 10000
258 4153 10000
165 2574 10000
348 4075 9999
97 3788 9999
18 370 9999
434 1032 9999
84 3505 9999
344 634 10000
467 4809 10000
161 1008 9999
47 3119 10000
86 1966 10000
232 4575 10000
494 1242 9999
336 4310 9999
343 2690 10000
245 2269 9999
142 2597 9999
293 2293 9999
451 1089 9999
336 4667 10000
494 822 9999
287 1555 9999
418 1381 10000
278 3253 10000
326 2836 9999
48 1544 10000
75 3950 10000
157 4048 9999
83 918 9999
109 1045 10000
306 950 9999
241 3660 9999
312 4562 10000
109 1327 10000
236 1233 10000
16 1263 9999
463 2201 9999
298 1762 9999
96 4412 9999
493 587 9999
176 4704 9999
371 765 9999
104 4006 10000
95 4072 9999
384 500 10000
149 2651 10000
238 4564 9999
172 1488 9999
9 2282 10000
3 2342 10000
130 3197 9999
360 3031 10000
249 1984 9999
43 1746 9999
42 3368 9999
373 1977 10000
36 1110 9999
395 3885 9999
136 775 10000
253 2461 10000
218 1001 9999
289 3493 10000
370 3956 9999
390 459 10000
104 1870 10000
407 2115 10000
95 1723 10000
85 495 10000
220 878 10000
205 3460 10000
120 1070 10000
67 2567 10000
273 3042 10000
412 2593 10000
336 4413 9999
262 3340 10000
372 445 9999
169 2040 9999
422 4478 10000
255 3991 10000
307 1540 9999
244 1105 10000
366 2013 9999
12 1133 10000
482 3461 10000
249 3739 10000
209 3475 9999
37 2894 9999
495 4416 9999
402 1108 10000
99 4023 9999
366 3552 10000
395 2039 9999
29 1805 9999
491 3014 10000
356 1396 10000
213 1731 10000
2 3491 9999
472 3020 9999
188 1938 9999
429 3598 10000
302 1908 9999
27 2971 10000
258 798 10000
136 4151 10000
135 623 9999
66 4300 9999
415 1150 10000
145 2599 10000
343 4812 9999
364 2614 10000
218 4817 9999
178 3091 10000
491 1726 10000
247 4400 10000
304 3937 10000
79 1522 10000
59 770 10000
281 3273 10000
56 4330 10000
398 4688 10000
154 3824 9999
281 1959 10000
214 3632 10000
360 3602 10000
461 3957 9999
132 4284 10000
308 3920 9999
330 4050 9999
25 123 10000
466 2529 9999
88 4166 10000
36 2959 10000
207 3210 9999
308 2057 9999
172 2973 9999
308 4226 9999
303 2848 10000
412 2911 9999
422 4513 9999
46 2047 9999
471 880 9999
487 944 9999
220 4147 10000
369 3098 9999
247 1640 9999
127 2504 10000
460 928 9999
1 2468 10000
256 2317 10000
15 4807 9999
426 1802 9999
325 790 10000
205 4290 10000
357 4783 10000
142 1235 10000
289 1338 9999
325 3690 9999
439 3801 10000
99 2655 9999
310 2827 9999
462 2963 9999
116 3621 9999
208 4855 10000
383 441 9999
192 4242 9999
447 4004 10000
190 812 10000
14 2779 10000
375 400 10000
447 2480 10000
103 4118 9999
450 4062 10000
291 2786 10000
479 3841 10000
235 4744 9999
214 1985 10000
284 1922 9999
66 2313 9999
166 197 9999
461 4131 10000
186 3989 10000
150 1048 9999
287 2078 10000
278 2384 10000
307 1697 9999
85 4012 10000
89 2664 9999
440 1937 9999
27 2768 9999
126 494 10000
485 720 10000
348 4176 9999
85 1760 9999
491 1534 9999
474 3329 9999
266 3307 9999
248 3774 10000
319 1575 10000
301 1025 10000
481 2394 9999
278 2494 10000
327 1034 10000
133 382 9999
360 1168 10000
257 2020 10000
320 4237 10000
396 885 9999
51 4977 9999
439 3649 9999
320 1714 10000
301 2702 9999
459 3855 9999
498 1234 10000
103 1263 9999
409 4747 10000
198 3097 10000
207 1065 10000
360 1332 9999
362 1729 9999
198 815 9999
58 3781 9999
254 4487 9999
21 2674 10000
242 875 9999
453 3912 9999
346 4093 10000
198 4258 9999
178 3146 9999
360 4017 10000
180 4533 9999
418 2347 10000
490 3150 9999
219 1267 10000
188 460 10000
247 4633 9999
190 1815 10000
183 2997 9999
166 314 10000
69 3748 10000
196 3169 10000
413 3099 9999
104 3125 9999
264 2717 9999
74 1486 9999
371 2765 9999
474 935 9999
250 4637 9999
461 3029 10000
368 3325 9999
379 4750 10000
429 3727 9999
365 1546 10000
76 4283 10000
431 476 9999
360 4038 10000
21 381 10000
336 3794 10000
258 462 10000
120 1580 10000
437 3315 9999
184 1095 10000
178 3602 9999
395 2022 10000
283 1213 9999
320 4873 9999
92 3402 10000
493 1841 9999
318 4668 9999
179 3238 10000
446 1702 10000
336 4969 10000
286 3374 9999
362 2273 9999
57 3917 9999
313 1967 10000
35 2573 9999
280 547 10000
392 626 10000
99 2987 9999
164 4992 9999
190 2478 9999
41 1061 9999
215 922 9999
468 2948 10000
376 2443 9999
456 1386 9999
35 1585 9999
478 2464 9999
387 2875 9999
161 4645 9999
22 2672 10000
206 942 9999
467 4971 9999
4 1622 9999
33 1845 9999
279 400 10000
298 2325 10000
120 2186 10000
140 2416 9999
303 1985 9999
14 254 10000
354 2567 10000
344 1360 10000
305 3928 9999
4 3152 10000
154 4423 9999
383 1254 10000
52 3038 10000
149 2697 10000
464 2656 9999
82 248 10000
478 4330 9999
461 2092 10000
439 2531 10000
493 2294 9999
419 2956 9999
448 1037 9999
483 2519 9999
70 4635 9999
158 3879 9999
56 4722 10000
232 2651 9999
340 1591 10000
128 4339 10000
452 4846 9999
450 3373 10000
280 1846 9999
448 3475 10000
70 3523 10000
147 2474 9999
14 1407 10000
66 1726 9999
265 1638 9999
363 659 9999
266 4088 10000
192 2621 9999
268 3395 10000
439 2815 10000
263 3606 9999
43 1438 10000
335 4924 9999
87 1650 10000
407 2861 10000
92 4001 10000
491 619 10000
238 767 10000
113 2330 10000
40 2060 10000
291 4150 9999
260 3756 9999
1 3002 9999
459 3746 9999
258 2359 10000
143 1913 10000
270 3386 9999
178 1721 10000
257 2956 10000
180 4740 9999
480 3742 10000
302 4754 9999
292 4379 10000
51 3403 9999
241 1231 9999
420 912 10000
198 1040 10000
381 468 9999
155 604 9999
449 1393 9999
73 1458 9999
40 288 9999
83 2196 9999
202 3613 9999
28 446 9999
116 139 9999
411 4154 9999
243 458 9999
76 2839 10000
40 632 10000
268 4221 10000
99 4316 9999
223 2509 9999
2 257 9999
71 4375 9999
216 687 9999
203 3943 10000
330 3603 9999
243 3792 9999
369 2037 10000
339 4727 9999
326 1563 9999
183 4512 10000
344 3492 9999
25 4860 10000
482 4348 9999
475 3727 9999
317 4401 10000
441 3855 10000
39 3245 10000
283 475 10000
472 3235 9999
492 3321 10000
106 3219 9999
379 756 9999
352 3231 10000
487 2952 9999
3 230 10000
269 1132 10000
381 812 10000
133 2607 9999
223 665 10000
460 1044 9999
486 4885 9999
24 2908 9999
487 3278 10000
481 4913 9999
261 3919 10000
485 4415 10000
310 761 9999
445 2330 9999
123 3186 10000
218 248 9999
286 4416 10000
208 3952 9999
359 4445 9999
188 3606 10000
485 509 10000
2 2943 10000
65 2202 10000
345 1132 9999
157 1082 10000
288 1678 10000
370 2384 9999
145 320 10000
432 851 9999
93 4220 9999
20 2109 10000
280 2675 9999
442 4388 9999
388 4258 9999
73 1647 9999
444 1643 10000
174 2471 10000
449 4191 9999
396 2650 10000
443 1095 10000
303 4874 9999
113 2294 10000
119 3038 9999
179 210 9999
198 740 9999
3 1408 9999
300 3298 9999
488 1485 9999
62 1930 9999
44 2469 10000
308 2228 10000
108 999 10000
459 1801 10000
55 1974 10000
457 3267 9999
486 4673 10000
289 1360 9999
7 2626 9999
431 1953 9999
108 2309 10000
478 1934 9999
203 2869 10000
223 3506 10000
396 3759 9999
182 4236 9999
191 1497 10000
287 2577 10000
19 3111 10000
387 941 10000
212 832 10000
482 4136 10000
296 4131 10000
299 4580 9999
84 3611 10000
183 3437 9999
403 1343 9999
110 2053 10000
275 3246 9999
424 488 9999
293 310 10000
480 4353 9999
269 2719 10000
16 1672 9999
114 2101 9999
381 4698 9999
225 1741 10000
134 4977 10000
350 2154 10000
271 4164 9999
209 1086 9999
26 618 9999
123 3493 10000
345 2012 10000
318 3369 10000
418 4554 10000
411 4383 10000
407 3329 9999
321 710 10000
425 4304 10000
22 2803 9999
143 3178 10000
458 1352 9999
152 3265 9999
311 4870 9999
477 2644 9999
374 626 9999
326 860 10000
390 2045 10000
370 2777 9999
195 4694 9999
146 1674 9999
402 4923 10000
84 1481 9999
408 503 9999
480 3547 9999
215 3198 10000
298 577 9999
157 1195 9999
371 4334 10000
198 4788 9999
409 1683 9999
396 420 9999
309 3912 10000
426 1608 10000
256 2987 10000
427 4483 9999
415 4520 10000
21 3956 9999
237 3672 9999
180 1155 10000
258 3672 9999
474 2789 9999
30 2782 9999
428 469 9999
349 4208 9999
222 3429 9999
97 2199 9999
44 2491 10000
438 594 9999
57 3662 10000
258 2337 9999
229 2584 9999
10 2969 9999
314 3051 9999
25 578 10000
363 2168 9999
217 2441 9999
218 4944 10000
446 1682 9999
132 1188 10000
63 2565 9999
349 1069 10000
349 3985 9999
165 4341 9999
144 3307 9999
318 608 9999
491 2826 10000
376 1632 9999
80 2182 10000
312 3387 10000
482 4088 9999
109 3932 9999
340 3485 10000
266 544 10000
208 1349 10000
185 2223 10000
407 598 10000
311 3823 9999
172 4718 9999
368 3831 9999
7 2230 9999
445 1032 10000
227 4290 10000
38 467 10000
407 4326 9999
63 4689 9999
11 4896 9999
177 719 10000
167 4973 10000
287 2868 10000
197 891 9999
73 3227 10000
197 1628 10000
158 1073 9999
380 3036 10000
43 3301 10000
38 2447 10000
57 1301 10000
468 3844 9999
148 2348 10000
390 2167 10000
436 3162 10000
497 971 9999
278 2296 9999
397 3508 10000
362 2861 9999
170 1638 9999
10 1410 9999
397 1410 10000
251 1223 10000
52 4211 9999
12 4182 9999
160 4661 10000
492 4770 9999
228 1425 9999
217 928 9999
247 1133 10000
322 3290 10000
188 2459 10000
321 2104 10000
271 2226 10000
79 4349 9999
135 4362 9999
497 4900 9999
216 4521 10000
360 1123 10000
137 2364 10000
418 3632 9999
350 2416 10000
483 2514 10000
109 1558 9999
291 2164 10000
74 3597 10000
69 4463 9999
240 3952 10000
253 2196 9999
260 3257 10000
390 1273 9999
474 1679 10000
312 2109 9999
283 3247 10000
211 2516 10000
457 4335 9999
77 3960 9999
30 2634 10000
255 996 9999
183 4706 9999
211 3362 10000
331 2438 9999
359 571 9999
472 3152 9999
95 766 10000
176 4793 10000
425 4385 9999
75 1357 10000
345 2523 9999
44 892 9999
175 1885 9999
97 2988 9999
79 3048 9999
235 469 9999
183 1798 9999
212 1035 10000
122 4989 10000
463 1975 9999
112 1317 10000
282 1863 10000
120 2169 9999
3 345 9999
393 2391 10000
267 4063 9999
383 895 10000
231 1168 10000
208 3681 9999
499 3194 9999
170 3069 10000
246 2142 9999
481 2389 10000
211 2193 9999
115 2189 9999
191 2759 10000
67 4374 9999
6 574 10000
403 786 10000
485 4260 10000
468 4552 10000
291 981 10000
384 3919 9999
462 3989 10000
496 3725 10000
349 3100 10000
217 1514 9999
289 742 10000
19 3672 9999
384 4450 9999
139 3563 9999
141 3641 9999
144 1762 10000
318 1976 10000
317 351 10000
74 3245 10000
8 1852 10000
334 2277 10000
338 2660 9999
144 1985 9999
49 196 10000
230 4007 10000
88 2755 10000
56 2675 10000
324 4829 10000
331 4109 10000
64 1992 10000
432 932 9999
337 4369 10000
394 548 9999
28 1842 9999
253 3476 9999
131 2308 9999
430 3783 10000
310 3322 10000
55 4822 9999
243 1863 9999
193 1651 9999
345 4110 10000
462 902 9999
321 3988 9999
61 1729 10000
230 1152 10000
429 2376 10000
391 2424 10000
484 788 10000
128 4846 10000
281 459 9999
444 3206 10000
41 3536 10000
488 2876 9999
360 4736 10000
348 4134 10000
361 971 10000
331 1752 10000
240 1057 9999
458 4606 9999
466 3485 10000
199 2022 10000
102 4911 9999
33 3639 9999
382 3431 9999
268 3715 9999
500 4014 10000
363 1591 10000
55 922 10000
98 2546 10000
229 3147 9999
359 638 10000
483 567 9999
489 3103 10000
45 3661 9999
120 4432 10000
121 1452 10000
122 3639 10000
249 1450 10000
130 4497 10000
97 4487 9999
374 1361 9999
440 2256 10000
148 546 10000
419 1374 9999
411 1314 10000
94 4638 9999
303 1930 9999
112 2967 10000
453 4936 10000
61 2215 9999
314 1777 10000
29 1443 10000
439 4309 10000
101 464 9999
385 3019 9999
290 3423 10000
325 4579 10000
371 3021 9999
106 3546 9999
116 1907 10000
231 3693 9999
178 841 9999
182 3193 9999
255 3603 9999
123 4214 9999
167 4364 10000
157 4528 10000
299 2614 10000
386 4149 9999
147 3499 9999
41 4741 10000
105 1375 9999
329 2793 10000
24 1158 10000
157 1751 9999
67 4712 9999
468 1809 10000
47 3304 9999
275 1958 10000
410 899 9999
314 786 9999
478 2341 10000
56 4843 10000
92 3342 10000
221 2680 10000
475 1545 10000
23 2559 10000
378 741 9999
408 3072 10000
400 3997 9999
455 4838 9999
383 4277 10000
121 2035 10000
182 4912 10000
267 3688 10000
406 1166 10000
285 4223 10000
13 4637 10000
225 2670 10000
160 3950 10000
379 3022 10000
234 4752 9999
139 2330 9999
492 3433 9999
161 3465 10000
403 717 9999
180 2422 9999
372 1625 9999
497 4410 10000
434 572 10000
181 4824 9999
346 4469 10000
440 4364 10000
344 2382 9999
78 102 10000
158 633 9999
494 4454 10000
426 1814 9999
316 2913 10000
149 4528 10000
485 1765 9999
420 1753 9999
64 1937 9999
33 2058 9999
37 2749 9999
464 4858 9999
440 2384 9999
114 3189 9999
300 3689 10000
186 2030 9999
469 3674 10000
494 1633 10000
440 1147 10000
59 2818 9999
311 1659 10000
250 3438 10000
327 1886 9999
350 4771 9999
376 3781 9999
353 704 9999
339 2788 9999
481 2774 10000
172 3118 10000
136 1039 9999
447 531 10000
471 2733 9999
141 3541 10000
263 1801 10000
152 1563 10000
134 4246 10000
405 973 9999
453 3394 10000
362 4576 10000
131 3830 9999
196 4159 9999
235 4042 9999
397 1178 10000
147 2402 9999
112 1055 10000
177 4229 9999
460 3822 9999
403 2316 9999
103 1973 9999
347 857 9999
67 4736 9999
357 4425 9999
381 2430 10000
145 829 9999
257 4667 9999
264 3060 10000
184 2594 9999
36 2972 9999
12 2249 9999
167 2454 10000
152 174 9999
244 4547 9999
279 4980 9999
184 204 10000
217 3562 9999
145 1091 9999
29 3896 9999
43 4191 9999
370 1803 9999
228 3950 9999
451 2222 9999
171 4693 9999
83 641 9999
395 2466 9999
274 1432 9999
253 1555 10000
306 606 9999
30 383 9999
463 2723 9999
498 3875 10000
166 935 10000
488 1275 10000
8 601 10000
357 4447 10000
250 1337 9999
374 2577 9999
363 1406 9999
18 4142 9999
177 668 9999
35 1154 10000
77 3655 9999
190 2886 9999
96 2627 10000
384 1514 10000
71 1818 9999
21 2017 9999
383 2927 9999
202 673 9999
474 2566 9999
188 2973 10000
255 2403 9999
375 3175 9999
269 1354 10000
162 1666 9999
90 2279 10000
480 4945 9999
233 2995 9999
13 2631 9999
433 2194 9999
348 4872 9999
56 4011 9999
420 3809 9999
237 341 10000
189 1826 9999
468 3186 10000
57 3188 10000
267 1522 9999
473 2204 10000
497 704 9999
407 565 10000
463 4069 10000
288 2608 10000
52 2804 10000
235 2820 9999
371 1144 9999
101 3623 10000
251 2352 10000
106 2753 10000
243 3129 9999
401 3058 10000
447 2470 10000
345 3263 9999
416 1540 10000
348 3831 10000
157 2497 10000
218 4366 10000
443 4093 9999
77 4794 10000
347 2380 9999
459 4392 9999
474 1330 9999
143 2675 9999
342 1808 10000
38 1362 10000
1 217 9999
426 3324 9999
177 3888 10000
391 3514 9999
32 4720 9999
240 783 9999
109 754 9999
486 4295 10000
320 1999 10000
169 2094 10000
233 1488 10000
37 2144 10000
325 1149 9999
39 3866 10000
284 1731 10000
277 1702 9999
293 2722 10000
480 3798 9999
219 3220 9999
275 4458 9999
303 2253 10000
75 3528 10000
195 4697 10000
399 3379 9999
466 4572 10000
161 2471 9999
420 1978 9999
461 687 9999
32 285 10000
65 255 10000
335 2766 10000
490 3999 9999
412 2587 9999
77 688 10000
347 4603 9999
315 406 10000
199 352 10000
204 4289 10000
176 2271 9999
55 4604 9999
325 3839 9999
184 586 10000
267 3469 10000
421 909 10000
223 4427 10000
101 828 10000
401 3937 10000
41 4939 9999
27 4360 9999
283 4260 9999
326 2000 10000
4 2923 10000
130 971 9999
355 1626 9999
18 3844 10000
428 3032 10000
488 4996 9999
326 389 10000
151 1627 9999
468 1469 9999
253 918 9999
336 2025 9999
169 1171 10000
5 1020 9999
65 4303 10000
321 2170 10000
327 3611 9999
177 3545 10000
69 4173 9999
382 1806 9999
176 395 9999
292 4643 10000
310 902 9999
341 4315 9999
107 3470 9999
86 3901 10000
423 4424 10000
49 1190 9999
140 2344 9999
466 4138 10000
415 3591 9999
321 3897 9999
234 4103 10000
131 1171 9999
326 1233 9999
497 1858 9999
459 2203 9999
207 4452 10000
427 4892 10000
307 1074 9999
315 4936 10000
372 4881 9999
402 1240 10000
211 3524 10000
401 1933 10000
453 1749 9999
111 449 10000
207 3705 10000
235 3208 9999
349 2176 9999
212 1163 9999
421 1401 9999
341 4884 9999
368 1433 9999
324 2077 10000
280 3712 9999
343 1472 9999
205 3887 10000
97 1174 10000
15 2786 9999
463 1992 10000
12 1656 9999
430 717 10000
31 3183 10000
155 2136 9999
372 3431 9999
133 1605 10000
496 3820 9999
104 2401 10000
263 3270 9999
328 1634 10000
376 521 9999
19 4029 9999
289 1086 10000
459 989 9999
205 1251 9999
151 2317 9999
489 4161 9999
201 1493 10000
114 4989 10000
21 4778 9999
269 614 10000
499 3771 10000
56 796 9999
16 2077 9999
77 896 9999
440 3272 10000
260 3923 9999
74 2024 10000
180 2480 10000
258 2465 9999
241 2497 10000
312 4241 10000
406 1083 9999
422 3283 9999
486 2539 9999
477 1223 10000
64 569 10000
304 434 9999
272 2037 9999
480 2723 10000
305 1286 10000
448 3940 9999
98 2061 9999
55 1088 10000
264 4171 9999
192 1250 9999
388 1190 10000
29 968 10000
173 3261 9999
60 1744 9999
236 2468 9999
256 4679 9999
433 4324 10000
419 725 9999
125 2326 9999
221 2842 9999
466 2540 9999
395 4971 9999
414 4862 9999
303 586 10000
246 2093 9999
5 3383 9999
217 575 10000
245 4916 9999
194 2620 10000
42 1252 10000
163 4622 9999
269 671 9999
334 4748 10000
204 3419 9999
359 1480 9999
435 4703 10000
209 1513 10000
296 3428 9999
85 4839 9999
275 4991 10000
312 3421 10000
83 4088 10000
84 2941 9999
321 1846 10000
258 3811 9999
244 2038 10000
476 1852 9999
219 4277 9999
31 1883 10000
10 2211 10000
377 4630 10000
315 2502 9999
66 3092 9999
348 3624 10000
57 2150 10000
204 2033 9999
47 636 10000
13 1397 9999
55 2545 10000
266 377 10000
275 4707 10000
134 1185 10000
4 361 10000
206 1758 9999
159 332 10000
196 2422 9999
94 3238 10000
106 4770 9999
239 593 10000
9 3869 9999
251 1046 10000
463 2449 10000
180 227 9999
412 1517 10000
320 1219 10000
150 2645 10000
246 4529 10000
201 3396 10000
464 4677 9999
261 2148 10000
175 1250 10000
71 2825 9999
149 4694 10000
272 1528 10000
315 1328 10000
341 3362 9999
268 3857 10000
303 4029 9999
342 2345 9999
164 4391 10000
452 1777 9999
125 1070 9999
93 4959 9999
339 4654 9999
89 4263 9999
94 3036 9999
160 490 9999
52 4303 9999
250 1945 10000
140 4222 9999
318 4350 10000
65 1970 9999
141 2545 10000
83 1909 10000
306 4935 9999
162 1769 10000
349 2229 10000
80 957 9999
92 2473 10000
58 1985 9999
398 2162 9999
175 3461 10000
228 700 10000
107 875 10000
437 2538 10000
181 754 9999
200 254 10000
85 4512 10000
98 829 9999
251 2753 10000
61 1970 9999
363 4683 10000
430 4989 9999
265 4658 10000
362 1402 9999
433 1161 10000
53 104 10000
193 2547 9999
413 1013 9999
233 4732 9999
270 2489 9999
352 1104 9999
268 4431 10000
216 1806 9999
22 462 10000
319 2099 9999
58 1868 10000
38 2136 10000
447 2177 9999
218 618 9999
189 442 10000
303 3149 10000
137 3867 9999
39 4109 10000
349 4684 10000
471 3638 9999
52 184 10000
134 207 10000
104 4057 10000
305 3748 10000
421 1057 9999
243 2911 10000
13 971 9999
108 1306 9999
384 870 10000
332 3637 10000
57 1190 10000
36 1180 10000
39 2951 10000
28 4537 9999
141 580 9999
312 1950 9999
449 4575 10000
482 1060 10000
148 2471 9999
302 1556 9999
311 4180 10000
8 4411 9999
7 4713 10000
414 2961 9999
498 941 10000
471 1698 9999
101 828 10000
435 4698 9999
68 1123 9999
193 3679 10000
459 1061 9999
372 3528 10000
382 1244 10000
397 4114 9999
411 3393 9999
464 578 10000
93 2131 9999
30 2517 9999
148 573 9999
328 4877 10000
148 4745 10000
114 2849 10000
406 3083 9999
85 925 10000
43 662 10000
311 1256 10000
82 918 9999
305 341 10000
410 4436 10000
58 3894 10000
387 418 9999
313 1572 9999
486 835 10000
392 3581 9999
488 1457 10000
9 2374 9999
21 742 9999
27 2215 10000
68 1075 10000
349 4918 10000
339 2722 10000
393 1095 9999
74 2917 9999
252 1493 9999
399 1381 10000
185 4553 10000
22 4195 10000
372 2797 10000
440 4390 9999
312 3193 10000
392 1746 9999
318 3034 9999
52 4998 9999
179 851 9999
339 3917 9999
431 1376 9999
467 1458 9999
385 1414 10000
345 924 10000
164 1510 10000
20 568 10000
453 2173 9999
273 4248 9999
57 2046 10000
331 4843 10000
141 2025 9999
152 3856 9999
25 3801 9999
131 3390 10000
151 2201 10000
117 1608 10000
399 4915 9999
24 341 9999
105 1695 9999
231 1566 9999
397 4758 9999
112 3880 10000
265 1569 10000
453 896 10000
140 4650 9999
88 984 9999
58 4618 10000
210 2151 9999
322 3488 9999
244 1858 9999
438 3215 9999
395 1860 10000
349 4742 9999
234 1686 9999
485 3080 10000
396 4185 10000
10 5000 10000
344 3022 9999
282 1561 10000
268 3934 10000
292 4031 9999
140 1294 10000
487 4671 10000
385 3521 9999
47 2947 10000
301 3314 9999
421 2349 10000
330 1075 9999
441 3209 10000
246 2071 9999
151 4173 9999
155 1922 10000
383 3113 10000
332 1196 9999
294 2639 10000
442 2136 10000
410 1638 9999
44 2119 10000
402 3401 10000
49 514 9999
194 270 9999
452 4968 10000
94 1850 9999
39 3317 10000
402 729 10000
290 3239 9999
39 3369 10000
369 712 10000
468 2658 9999
131 673 9999
229 445 9999
320 3486 10000
178 3944 9999
417 4188 10000
74 1534 10000
321 843 10000
365 3971 10000
469 2312 9999
14 2300 9999
296 3420 10000
64 2729 10000
269 3683 10000
24 4036 9999
288 3708 10000
132 1020 10000
93 4698 10000
149 3391 9999
121 2523 10000
158 3461 9999
415 3777 9999
465 3763 9999
282 1723 9999
139 772 10000
80 4647 10000
157 2069 9999
167 4010 10000
24 2362 9999
393 1524 10000
247 1518 9999
90 1748 9999
289 3051 10000
483 3890 9999
186 3796 9999
52 983 10000
50 4279 10000
181 1785 9999
310 980 10000
199 606 9999
321 2163 10000
480 3903 10000
285 4015 9999
242 4587 10000
389 4954 10000
17 2997 10000
54 4586 9999
181 4551 9999
217 3330 10000
188 1110 9999
408 1556 9999
485 3575 10000
112 4730 9999
262 1945 10000
42 166 10000
452 1947 10000
409 4990 10000
360 361 10000
82 1466 9999
484 4848 9999
257 4453 10000
298 2534 9999
313 717 10000
112 1027 10000
213 3153 10000
233 963 9999
287 2492 9999
264 4992 10000
294 3512 9999
473 1602 9999
474 3143 9999
251 346 9999
132 770 9999
338 3186 10000
470 2155 9999
28 2582 10000
381 572 9999
431 1537 10000
92 3058 10000
367 654 10000
280 2578 10000
42 3144 9999
38 3559 10000
367 1620 10000
127 3235 10000
155 1463 10000
107 4963 10000
24 3611 10000
104 1965 10000
414 2534 10000
193 3911 9999
467 1687 10000
66 195 9999
214 1794 9999
75 3236 10000
263 3092 10000
56 2912 9999
59 1953 10000
368 2308 10000
498 2931 10000
470 562 10000
146 1334 10000
3 3854 9999
291 2542 9999
412 4283 10000
96 3602 10000
106 2164 10000
176 1066 10000
168 4167 10000
184 226 9999
26 1576 9999
251 2909 10000
404 3444 10000
204 4233 9999
182 2503 10000
163 3767 9999
284 2983 10000
357 2776 10000
232 2924 9999
330 2812 9999
455 4900 9999
137 3950 10000
248 4121 9999
386 4453 10000
28 4646 10000
282 2342 10000
279 2386 10000
369 1031 9999
393 2667 10000
82 666 10000
196 3700 9999
139 2824 9999
213 3181 9999
368 540 10000
286 1101 10000
156 4226 10000
32 2069 10000
299 1058 10000
389 2692 9999
349 4686 9999
225 2890 10000
290 2429 10000
219 4561 10000
26 4592 9999
248 906 9999
458 2513 10000
440 3363 9999
86 711 9999
217 3994 10000
335 2558 9999
247 927 9999
67 2697 10000
412 4248 9999
474 3429 9999
104 180 10000
86 430 10000
135 1673 10000
64 3021 9999
2 1467 9999
200 2633 10000
310 2199 9999
474 4846 9999
227 4948 10000
220 1717 10000
239 3177 10000
63 1472 9999
390 833 10000
97 1586 10000
207 3057 9999
294 2084 10000
500 2321 9999
306 722 9999
113 4448 9999
140 3005 10000
112 3775 10000
364 1720 9999
453 3533 10000
279 3978 9999
80 4849 9999
283 1798 9999
294 1330 9999
466 3012 9999
15 4152 10000
290 1762 10000
386 4495 9999
67 2241 10000
171 1652 9999
66 2187 9999
368 3130 9999
16 2072 9999
271 3487 9999
377 1694 9999
494 4159 10000
475 1546 9999
369 4123 9999
146 2336 10000
122 2852 9999
402 3144 9999
21 3545 9999
115 1690 9999
423 3726 9999
77 1345 10000
459 634 9999
191 1237 10000
57 3299 9999
250 4839 9999
274 3087 10000
60 3000 10000
362 1875 10000
378 3534 9999
417 729 10000
284 3988 10000
293 3542 9999
371 1227 9999
13 1912 9999
417 2658 9999
399 4889 9999
85 786 9999
203 1610 9999
44 1552 9999
318 3663 10000
64 2087 10000
64 798 9999
116 2347 9999
112 477 10000
466 3770 9999
391 4856 9999
403 2358 9999
274 1135 10000
360 897 10000
163 2241 10000
89 4986 9999
254 4527 9999
395 1597 9999
149 658 10000
357 1076 9999
264 2560 9999
490 1417 9999
365 481 9999
360 3515 10000
451 2077 9999
59 3759 9999
121 4970 9999
251 4662 10000
1 4154 10000
173 2069 10000
50 2885 10000
394 3742 10000
425 2668 10000
70 2626 9999
92 734 9999
50 217 9999
289 4517 9999
368 1992 10000
184 4271 9999
326 3170 10000
435 2868 9999
68 3208 10000
457 2384 9999
355 2094 9999
26 1901 10000
240 4675 9999
121 1506 10000
1 774 10000
265 4860 9999
22 4798 10000
116 150 9999
65 1624 10000
215 3156 10000
445 3786 9999
197 1450 9999
399 3813 9999
47 2125 9999
150 2071 10000
309 523 9999
208 893 10000
302 1872 10000
301 1850 9999
128 2403 10000
265 4677 10000
229 3572 10000
290 4992 9999
376 3836 9999
389 1805 10000
92 4964 10000
147 3174 9999
52 213 10000
498 3244 10000
49 3432 10000
357 4932 10000
408 2161 9999
246 3364 9999
451 4312 9999
333 1482 9999
463 815 10000
420 2419 9999
218 1191 10000
246 691 10000
306 3654 10000
280 3109 9999
496 2726 10000
417 2690 9999
369 4592 10000
294 1238 10000
399 1639 9999
401 2176 10000
90 1807 10000
228 585 10000
108 4310 9999
57 879 10000
217 4943 9999
17 2362 9999
370 2328 9999
353 1841 9999
426 4469 9999
328 1969 10000
140 1499 9999
17 285 9999
266 1232 9999
462 2668 10000
456 1622 10000
70 205 9999
499 1739 10000
461 4138 9999
276 653 9999
276 2765 9999
419 4055 10000
275 443 10000
107 3955 9999
272 3578 10000
417 3719 9999
74 4344 9999
34 1387 10000
108 4363 9999
294 4843 10000
256 706 9999
138 2358 10000
78 1637 10000
217 308 9999
339 3991 10000
459 3214 10000
469 3897 9999
25 1091 10000
368 1726 9999
248 4944 10000
427 4784 9999
454 4367 9999
450 4109 9999
324 2941 9999
162 3967 10000
253 3762 10000
38 1578 10000
68 1406 10000
432 3541 10000
319 2558 10000
104 2719 9999
106 2249 10000
377 4749 9999
126 1516 10000
203 4732 10000
233 1065 9999
146 1888 10000
500 4765 10000
106 530 10000
58 2733 9999
403 462 10000
380 4647 9999
114 2072 10000
434 1733 10000
391 4121 9999
473 3670 10000
219 1504 10000
455 2869 10000
260 540 10000
25 3041 10000
277 2443 9999
347 831 10000
62 3398 9999
443 3777 9999
491 3986 10000
236 2465 9999
172 4497 10000
99 4773 10000
350 3730 10000
440 3453 9999
386 4719 9999
456 4879 10000
450 1226 10000
41 893 10000
172 4672 9999
11 4816 9999
437 739 9999
20 1112 10000
225 1017 9999
482 775 9999
55 183 9999
132 1181 9999
14 104 9999
426 3969 10000
496 2242 10000
322 2725 10000
240 3847 9999
391 841 10000
417 4123 10000
150 3655 9999
43 4634 10000
213 2669 9999
76 710 9999
181 1111 10000
88 4465 9999
12 2641 9999
17 2519 9999
34 1008 10000
440 2799 10000
30 2809 9999
40 3526 10000
43 1611 9999
157 982 9999
475 860 9999
325 4932 10000
173 244 9999
302 1407 10000
456 3022 10000
433 1153 9999
450 890 9999
451 696 9999
171 3745 10000
19 473 9999
93 2254 9999
420 3643 10000
229 851 9999
464 4792 9999
187 2577 9999
252 3993 9999
84 1915 10000
189 4051 9999
421 4565 9999
148 490 10000
424 4799 9999
407 4892 10000
140 3878 9999
323 2381 9999
45 1626 9999
95 2219 9999
184 2921 9999
217 3382 10000
246 3935 10000
270 896 10000
102 568 10000
27 3133 10000
452 3360 9999
95 3411 9999
28 4826 10000
151 3911 10000
308 718 9999
453 4272 9999
268 4864 10000
246 1953 10000
225 918 9999
175 2429 9999
266 3708 10000
320 530 10000
248 1618 9999
410 2774 9999
98 1776 10000
35 4239 10000
406 788 10000
356 3062 9999
435 3706 9999
178 4850 10000
134 3134 9999
62 4658 10000
131 817 9999
125 3690 10000
428 2812 10000
325 3138 9999
105 3012 9999
106 3592 9999
449 4906 9999
420 600 9999
175 1251 10000
54 1194 9999
124 1289 10000
204 4597 9999
389 4770 10000
305 2449 10000
301 2084 10000
79 1408 9999
132 3455 9999
179 3984 10000
283 1578 9999
256 4205 9999
247 2337 10000
73 4673 10000
325 4395 9999
124 2199 10000
53 3953 10000
379 4905 9999
409 3420 9999
450 4979 9999
311 1939 10000
334 501 9999
170 665 10000
248 3829 9999
240 772 10000
386 3885 9999
267 3351 9999
340 3054 9999
395 1312 9999
151 2967 10000
376 3737 9999
102 3415 10000
394 4637 10000
394 3072 10000
254 3211 10000
343 3049 9999
74 254 10000
81 2721 10000
56 4205 9999
5 3835 9999
111 2277 9999
252 3820 10000
425 4379 10000
71 4240 10000
310 804 10000
236 2350 9999
407 586 9999
2 2357 10000
269 1791 10000
21 1290 10000
8 176 10000
20 2053 10000
448 1603 9999
5 65 10000
52 1116 9999
430 2820 10000
437 613 9999
23 4842 9999
442 4062 9999
231 4924 9999
385 3782 9999
77 2921 10000
249 2254 9999
288 2162 9999
398 1753 10000
497 651 10000
209 2005 10000
372 2470 9999
37 3532 9999
11 3637 10000
310 311 10000
293 3055 10000
236 1793 9999
391 4792 10000
477 4979 9999
393 2722 10000
347 4335 10000
467 1351 10000
93 1303 10000
123 3749 10000
419 3246 10000
103 4251 10000
125 3549 10000
187 3311 10000
443 1550 9999
89 1630 10000
113 2387 10000
443 3918 10000
263 4607 10000
376 3154 10000
500 651 9999
469 4696 9999
73 1505 10000
268 650 9999
272 1302 10000
129 3344 9999
449 2235 9999
466 576 9999
344 2350 9999
161 170 10000
397 1516 10000
227 2046 9999
136 3950 9999
395 3947 10000
31 4100 10000
110 2540 9999
122 4070 9999
471 4294 9999
409 4858 10000
397 4405 10000
1 182 9999
189 2086 10000
5 15 9999
193 1750 9999
330 736 9999
201 2722 9999
205 2033 9999
149 2176 9999
491 4440 10000
406 467 10000
348 4952 9999
228 3768 9999
490 1115 9999
149 665 10000
499 3303 10000
190 4723 10000
189 3765 9999
179 4710 10000
145 3930 9999
366 390 9999
376 3458 10000
185 1736 9999
189 3553 10000
307 2713 10000
498 4927 9999
227 1270 9999
155 2309 10000
170 891 10000
226 1119 10000
389 4681 9999
28 4055 10000
123 2427 10000
482 1336 9999
144 2735 9999
64 1083 9999
19 2098 10000
171 3987 10000
340 1647 9999
324 1506 10000
365 1165 10000
160 4865 10000
410 4998 9999
363 2557 9999
209 2209 10000
444 1725 9999
477 2987 10000
409 1505 10000
285 380 10000
294 3407 9999
377 3515 10000
3 2745 10000
476 3940 10000
100 4013 10000
328 4286 10000
459 629 10000
232 4243 9999
247 2303 9999
432 2689 9999
425 2198 10000
140 2115 10000
31 4943 10000
211 3043 9999
278 3675 10000
286 3425 10000
244 3332 10000
435 4690 9999
69 2205 10000
487 2588 9999
361 1709 9999
241 3145 9999
138 3740 10000
467 3063 9999
239 1177 10000
282 1373 10000
277 4091 10000
406 2232 9999
258 3681 10000
228 727 10000
200 1223 9999
215 3136 9999
214 3059 9999
362 3059 9999
460 2643 10000
153 3839 9999
229 1413 9999
75 1337 10000
34 1341 10000
109 2689 9999
435 4783 9999
450 3841 10000
259 3742 10000
18 3337 10000
302 1287 10000
11 1121 10000
51 376 10000
86 1229 10000
313 2479 10000
299 376 9999
113 770 9999
416 3911 10000
324 4178 10000
173 2184 10000
107 3499 10000
167 1720 9999
472 2667 9999
247 2187 9999
332 917 9999
496 4132 10000
280 2436 10000
252 4125 9999
494 2727 9999
287 4541 9999
227 446 9999
65 4108 9999
31 1764 9999
142 317 10000
365 438 9999
229 2948 9999
138 593 10000
106 3552 10000
410 3848 10000
367 3244 10000
420 1416 9999
360 1857 10000
486 2995 9999
28 2815 9999
464 1538 9999
20 3026 10000
345 1580 9999
72 1534 10000
115 4100 10000
280 2768 10000
405 1268 10000
247 791 10000
28 3144 10000
298 1623 10000
447 4520 9999
299 2716 10000
419 2076 9999
378 2572 9999
443 746 9999
300 1320 9999
459 2852 10000
373 4780 9999
152 4627 9999
233 2811 10000
424 2302 10000
368 2723 9999
446 1625 10000
490 637 10000
376 1664 9999
327 4882 10000
358 3041 9999
184 4688 9999
451 2111 10000
321 3374 10000
324 3567 10000
113 4490 10000
219 2497 10000
57 2516 9999
171 3278 10000
90 4855 9999
193 599 10000
127 379 9999
154 284 9999
272 2241 10000
427 4978 10000
316 4264 10000
302 1703 9999
286 4376 10000
271 1690 10000
30 3574 10000
179 3723 10000
112 295 9999
108 4724 9999
441 4028 9999
421 2421 9999
366 2963 10000
398 1965 9999
320 3356 9999
424 4647 10000
89 920 9999
75 596 10000
329 1036 10000
72 4319 9999
377 3940 9999
65 2811 9999
414 2795 10000
444 2301 10000
383 488 9999
186 1366 10000
342 2971 10000
28 3022 9999
318 4202 10000
425 4190 10000
411 1771 10000
392 4110 10000
305 3608 10000
177 3937 9999
37 869 9999
235 1183 10000
348 3532 9999
79 989 10000
227 4743 9999
352 1243 9999
87 4817 9999
318 2882 10000
370 3186 10000
210 1153 10000
293 1117 10000
45 1139 10000
73 1156 9999
298 2725 9999
21 2962 10000
307 1730 10000
110 4043 9999
467 4290 10000
173 2483 10000
185 4448 10000
201 3967 10000
476 2844 10000
85 1227 9999
153 1250 9999
360 4371 10000
230 2889 9999
266 3099 9999
220 4286 10000
145 959 10000
215 748 9999
478 1501 10000
216 2540 9999
56 3142 9999
28 367 10000
339 3694 9999
75 4099 10000
28 254 10000
29 4487 10000
154 604 10000
278 1220 10000
115 4388 9999
352 4697 10000
120 1714 10000
28 1723 9999
322 2660 10000
1 4676 9999
49 2633 9999
234 4494 9999
448 1535 9999
12 1595 10000
21 4730 9999
310 2216 10000
274 2209 10000
310 4295 9999
277 3533 10000
469 753 10000
325 4849 10000
77 475 10000
12 4413 10000
270 1277 9999
215 619 10000
94 2047 10000
37 4272 9999
336 954 9999
327 3406 9999
26 310 9999
358 725 10000
479 860 9999
2 1764 10000
97 1142 9999
78 3046 9999
159 426 9999
323 4950 9999
440 3552 9999
175 3662 10000
105 2086 9999
369 2443 10000
19 66 10000
278 2558 10000
301 2309 9999
39 2297 9999
253 3039 10000
15 1941 9999
92 2041 10000
205 2893 9999
34 2032 10000
452 4737 9999
372 3901 10000
165 1578 9999
123 1569 9999
152 1518 9999
11 4613 10000
420 601 9999
125 1326 10000
277 1526 10000
251 916 10000
123 4413 9999
30 1694 9999
189 3830 9999
395 3033 10000
149 1027 9999
223 541 10000
438 1400 9999
102 1747 9999
292 1205 9999
170 391 9999
313 3354 10000
193 737 10000
417 1869 9999
216 3884 10000
12 4097 9999
36 73 10000
317 4168 10000
270 4960 10000
249 2476 10000
471 930 9999
5 3740 10000
17 2970 10000
494 2797 10000
122 883 10000
483 4873 9999
401 4142 10000
315 4066 10000
400 3739 9999
189 4019 9999
161 2964 9999
402 3978 9999
56 3533 10000
194 3685 9999
292 1967 9999
420 798 9999
299 3168 9999
83 4447 9999
46 4501 10000
243 1406 9999
429 2921 10000
350 2791 9999
329 3100 9999
361 3302 10000
315 2857 9999
22 4135 10000
387 3793 10000
270 3881 10000
302 1216 10000
306 3745 9999
388 938 10000
476 3432 9999
348 3454 10000
388 3307 9999
53 1651 10000
334 4562 9999
276 2072 9999
219 1720 10000
358 733 10000
28 4842 10000
129 4496 10000
470 2869 10000
467 767 9999
111 3913 9999
64 2950 9999
372 3995 9999
429 1984 10000
277 3385 10000
129 273 9999
145 1521 10000
157 1707 9999
224 1876 9999
123 4798 10000
453 2764 10000
336 3396 10000
143 826 9999
240 3991 10000
347 1505 10000
363 3294 10000
151 2832 10000
366 792 10000
140 4645 10000
408 2905 9999
225 3656 10000
177 1715 10000
375 1084 10000
487 1483 10000
336 759 10000
108 396 10000
283 3627 9999
301 4505 10000
9 3330 9999
173 906 10000
85 1943 10000
361 480 9999
39 4322 10000
171 4515 9999
50 1217 9999
489 4892 9999
352 1749 10000
101 4911 10000
454 2354 9999
359 1054 9999
11 4418 9999
173 4150 10000
430 1585 9999
189 4880 9999
15 3827 9999
176 196 10000
468 1310 10000
403 4237 10000
421 2213 9999
437 1119 10000
112 2139 10000
453 2681 10000
243 2927 10000
465 2476 9999
102 2259 10000
167 4607 9999
214 939 9999
157 4284 9999
311 859 10000
227 2934 10000
200 988 10000
361 2439 9999
343 2828 9999
235 4238 9999
299 4294 9999
57 803 9999
73 1556 10000
379 4622 9999
113 840 10000
285 589 10000
129 3063 9999
208 2800 10000
181 3688 10000
7 4491 9999
342 4843 10000
322 1519 9999
335 877 10000
409 4336 10000
27 4390 9999
220 591 9999
258 1992 10000
128 4834 9999
51 2222 9999
216 3058 9999
314 4756 9999
73 96 9999
364 2894 10000
246 1821 9999
45 2729 9999
241 2108 10000
251 3499 9999
229 4629 10000
483 1813 10000
290 3530 9999
223 3475 10000
481 4614 10000
443 2191 9999
411 4984 9999
255 3176 10000
371 3914 9999
371 4276 9999
329 4714 10000
450 4657 9999
27 920 10000
105 302 10000
378 3214 10000
258 3231 10000
242 4222 10000
6 2208 10000
202 1746 9999
3 644 9999
485 4496 10000
145 4047 10000
267 755 9999
267 3531 10000
442 3889 10000
316 1176 9999
341 3048 10000
85 3929 10000
104 1369 9999
407 3970 9999
181 2076 10000
185 4994 9999
462 3718 9999
373 4700 9999
20 4890 10000
416 4826 9999
139 4386 10000
372 3510 10000
453 1019 10000
437 3278 10000
409 3721 10000
319 1368 10000
325 336 10000
265 3124 9999
99 2991 9999
137 2156 10000
272 2931 9999
158 409 10000
280 686 9999
473 3025 9999
208 2415 10000
270 4630 9999
143 3166 10000
183 1446 9999
196 3227 10000
102 1793 10000
485 2018 9999
352 4409 10000
87 2380 9999
21 1693 10000
180 3315 9999
258 3590 9999
437 759 9999
208 2425 10000
429 1226 9999
2 3960 9999
448 2115 10000
365 2576 10000
239 3636 9999
433 3434 9999
235 4712 10000
79 388 10000
384 2962 10000
170 2987 10000
404 4234 9999
267 4537 10000
167 2380 10000
173 4219 9999
461 1310 9999
242 2944 9999
101 4031 10000
303 1052 9999
75 3348 9999
270 4298 10000
213 3362 9999
455 1997 9999
290 4111 9999
436 3569 10000
202 3819 10000
384 3335 9999
393 1838 9999
334 4291 9999
120 1209 9999
172 1852 9999
242 825 10000
42 1239 9999
162 3757 9999
180 3402 10000
7 1578 10000
314 4409 9999
407 2572 9999
420 2321 10000
173 3473 10000
492 768 10000
69 2995 9999
141 1702 10000
22 3000 9999
360 2930 9999
298 4019 9999
300 2951 10000
233 4824 9999
478 3622 9999
18 3905 10000
447 1818 9999
391 1928 10000
384 2770 10000
121 416 9999
136 1825 10000
185 914 9999
369 529 9999
331 2878 10000
141 4159 10000
396 4489 9999
399 3133 10000
64 4273 10000
46 4069 10000
98 845 10000
120 1506 9999
379 3768 9999
110 2223 9999
118 123 10000
250 4731 10000
83 3033 10000
162 1186 10000
195 3877 10000
249 4873 10000
389 547 9999
264 895 9999
253 702 10000
80 1169 9999
494 1754 9999
372 720 10000
255 2259 10000
203 934 10000
200 298 10000
35 1428 9999
418 1950 9999
361 1319 9999
92 488 9999
120 1733 9999
274 801 10000
322 1043 10000
361 1892 9999
339 4857 9999
286 1001 10000
329 1700 10000
163 4616 9999
118 1489 10000
405 2303 10000
413 4601 9999
271 3800 9999
277 1339 10000
251 2469 9999
494 1123 10000
142 2857 10000
358 3348 10000
279 1341 10000
164 3773 9999
189 2452 9999
180 500 9999
394 4955 10000
377 2378 10000
429 2390 9999
276 2556 10000
151 973 10000
319 1340 10000
440 1259 10000
453 1625 9999
307 965 9999
23 2499 10000
29 3612 10000
341 946 10000
404 4358 9999
220 1420 10000
200 4842 10000
30 4582 9999
353 3228 9999
106 304 9999
458 2668 10000
385 1768 10000
89 4323 10000
500 4788 9999
430 613 10000
372 2782 10000
302 1306 9999
102 2440 9999
75 2353 10000
296 2679 10000
388 2691 9999
372 615 9999
307 1069 9999
274 4371 9999
6 825 9999
432 4545 10000
7 2809 9999
224 449 9999
63 741 9999
326 4076 10000
31 2031 10000
321 2327 9999
246 4489 9999
251 1142 10000
49 3790 9999
436 1676 10000
378 3672 9999
247 4054 9999
79 2335 10000
391 1448 10000
441 3963 9999
456 2682 10000
292 1643 9999
342 4876 9999
241 3080 10000
360 3878 10000
81 966 9999
32 674 10000
391 3008 9999
162 4088 10000
290 3154 9999
9 3849 10000
299 423 9999
451 2903 9999
300 573 10000
172 3198 10000
55 1432 9999
336 3400 10000
92 4333 10000
361 1791 9999
169 512 9999
152 4076 9999
399 1727 9999
10 1384 9999
481 1206 9999
309 2022 9999
301 2492 9999
388 2320 10000
303 4896 9999
79 2665 10000
236 982 10000
45 3147 9999
246 512 10000
390 1148 9999
19 4758 10000
113 2938 9999
242 1801 10000
151 3149 10000
30 3315 10000
143 825 9999
433 2100 9999
194 2248 10000
474 1087 10000
337 2387 9999
441 4035 9999
16 3242 9999
291 883 9999
208 213 9999
232 1757 10000
468 4881 10000
394 1125 9999
11 1677 10000
146 302 9999
206 4898 9999
392 4278 10000
30 577 10000
98 3540 9999
50 3597 9999
342 1416 9999
403 1051 10000
298 3156 9999
475 1266 10000
229 280 10000
402 2119 10000
415 4292 9999
361 2887 9999
1 3299 9999
357 3142 10000
278 2248 10000
266 549 10000
83 4437 9999
313 2864 10000
274 3792 10000
321 3785 10000
472 4580 10000
134 3048 10000
153 4088 10000
441 3670 9999
140 3542 10000
14 2074 10000
125 4012 9999
121 2220 10000
370 3673 10000
218 549 10000
40 792 10000
392 1652 9999
124 2252 10000
350 1156 9999
170 3188 9999
499 1228 9999
249 4692 10000
55 4664 10000
256 1922 9999
20 2068 9999
340 4800 9999
241 3438 9999
474 600 10000
34 2784 10000
434 4704 10000
329 2822 10000
47 3436 10000
29 2868 9999
418 4494 9999
95 601 9999
114 2270 10000
457 2350 9999
435 3392 9999
257 3812 10000
416 4161 10000
240 1724 10000
334 2990 10000
474 3077 9999
316 484 10000
405 692 10000
365 1397 10000
275 3266 9999
120 3781 10000
200 4686 10000
400 1915 10000
178 4308 10000
464 1856 10000
463 2270 9999
190 2018 10000
370 835 9999
217 4667 9999
304 779 9999
202 1258 9999
302 3027 10000
301 782 10000
417 1723 10000
457 3768 10000
256 3963 9999
447 2624 10000
321 1248 9999
27 4827 9999
339 2704 9999
320 595 9999
100 1103 9999
419 3441 9999
61 105 10000
299 3774 10000
295 1818 9999
376 2466 10000
276 2372 9999
374 1981 10000
455 4730 9999
209 3203 10000
254 2091 10000
442 1599 9999
247 1147 10000
232 4246 10000
373 395 10000
245 4037 9999
152 3486 9999
97 2564 9999
342 2805 9999
417 2798 10000
2 3784 10000
169 2032 9999
364 1860 9999
348 2918 9999
191 4823 9999
478 3029 9999
147 1643 9999
307 4193 10000
491 4454 9999
444 1770 10000
112 2409 10000
483 851 9999
298 1161 9999
112 3204 9999
261 955 10000
259 1194 10000
402 956 10000
179 3668 9999
258 2197 10000
253 3927 10000
424 1591 10000
36 3721 10000
483 1781 10000
240 2458 9999
345 2456 10000
441 4708 9999
155 4630 10000
26 2831 10000
384 4278 10000
346 1307 9999
75 1651 10000
236 3081 9999
97 1539 10000
24 2023 9999
470 4040 10000
184 1523 9999
140 422 9999
192 605 9999
479 564 10000
116 3112 10000
71 4215 9999
152 4552 10000
449 4209 9999
452 1986 10000
209 4301 9999
122 3827 10000
254 1622 9999
50 925 9999
240 2767 10000
99 4941 10000
125 2114 10000
94 2074 9999
78 2253 10000
330 2240 10000
90 2499 9999
261 2600 9999
128 1008 9999
391 3886 10000
8 2742 9999
60 578 9999
20 4234 9999
108 2770 10000
217 4932 10000
253 4392 10000
2 1862 9999
45 1462 9999
271 2371 10000
138 2457 9999
480 3134 10000
53 4516 9999
254 4572 9999
472 2701 9999
280 985 10000
392 4785 10000
106 1493 10000
403 3946 10000
73 626 10000
75 4914 10000
11 1573 9999
246 3891 9999
97 3678 9999
180 2624 9999
337 2638 10000
494 1300 10000
122 1865 9999
252 4602 10000
68 4914 9999
113 1382 9999
67 2116 10000
267 660 10000
312 2136 10000
402 1800 10000
42 1233 9999
33 3712 10000
278 1981 10000
467 4152 10000
189 2711 10000
464 4097 10000
169 780 10000
85 3342 10000
490 1765 9999
425 3601 9999
297 4802 9999
217 2943 9999
398 1405 10000
377 849 10000
292 3528 9999
403 4520 10000
253 2622 9999
26 41 9999
146 241 9999
388 2298 10000
469 2273 9999
499 4141 9999
142 1429 10000
263 1711 9999
71 727 9999
244 4167 9999
139 2662 9999
37 4370 9999
73 289 10000
397 3409 9999
325 2121 9999
104 4763 9999
478 1241 9999
8 4117 10000
103 479 10000
104 2309 10000
341 442 9999
215 721 9999
400 2930 9999
367 4750 10000
65 2331 9999
489 1305 10000
212 3838 10000
339 2358 10000
470 1628 10000
279 4031 10000
219 441 10000
296 1781 9999
426 1851 9999
35 627 9999
77 4451 10000
480 3051 9999
363 4991 10000
107 3568 9999
322 3648 9999
486 1587 9999
221 1477 9999
96 1658 9999
303 3851 10000
367 3166 9999
263 4764 9999
105 3159 10000
75 1332 9999
315 3848 10000
380 3869 10000
295 3037 9999
262 2003 9999
495 2263 9999
380 4147 10000
370 4515 9999
130 3489 10000
91 1433 9999
142 635 9999
102 187 9999
101 1012 10000
206 1963 9999
406 2836 10000
58 407 9999
191 1841 9999
72 2164 9999
256 1431 10000
230 4320 9999
317 4403 9999
361 1025 9999
118 2174 10000
451 1962 10000
80 1410 10000
414 559 10000
190 1953 9999
422 1416 10000
256 3180 9999
7 1072 10000
394 992 10000
29 3968 10000
392 3403 10000
316 1846 9999
144 1588 10000
1 3648 9999
472 564 10000
417 3897 10000
473 2046 9999
166 4842 10000
448 1727 9999
277 577 10000
351 3528 9999
207 1523 10000
46 2559 10000
275 2623 9999
272 832 9999
59 900 9999
228 3526 9999
276 893 10000
413 966 10000
452 1287 10000
373 1097 10000
120 2443 9999
310 4250 10000
193 3932 10000
497 2542 10000
4 3297 10000
414 2818 9999
390 1297 10000
399 3324 10000
88 3579 9999
157 2574 10000
443 2563 10000
393 1182 10000
361 3300 9999
451 3315 10000
336 2091 9999
200 2090 9999
52 4990 9999
87 2530 10000
95 4986 9999
284 391 9999
25 1459 9999
228 2340 9999
92 2578 9999
460 866 9999
456 1817 9999
484 3339 9999
445 4761 9999
236 3101 10000
317 2403 10000
254 3275 9999
364 2630 9999
460 3397 10000
103 3536 9999
285 4036 10000
49 4547 9999
458 3755 9999
18 2222 10000
42 3992 9999
354 464 10000
19 474 10000
494 2279 10000
397 3337 10000
39 3281 9999
69 1979 9999
433 1839 10000
184 1621 9999
17 2040 9999
427 1819 10000
457 3895 9999
81 1566 9999
200 2900 9999
5 625 10000
495 1146 9999
247 1877 9999
156 1576 10000
359 3771 9999
488 2270 10000
291 1827 9999
108 2297 9999
192 430 9999
65 3840 10000
19 626 9999
462 3189 9999
273 4971 9999
185 4469 9999
309 4336 9999
209 3183 9999
408 4325 10000
116 2023 10000
387 2847 10000
178 1285 9999
365 2042 9999
328 3490 9999
134 1542 9999
207 4974 9999
409 1656 9999
134 423 10000
219 1794 10000
4 3123 9999
213 2244 9999
9 2156 9999
416 1154 9999
157 425 10000
279 4962 9999
391 3761 10000
82 2445 9999
154 4877 9999
256 4012 9999
308 1289 9999
136 2194 10000
148 1889 9999
162 646 10000
186 4085 10000
335 3182 9999
48 217 9999
195 3908 10000
190 706 10000
342 4383 9999
27 159 9999
261 4380 10000
318 3782 9999
304 4123 9999
195 3693 9999
237 1093 9999
137 1983 10000
213 2987 9999
251 2053 9999
471 3181 9999
258 1000 10000
233 3648 10000
374 4356 9999
225 4735 9999
415 1543 10000
450 4454 10000
66 4300 10000
423 2462 9999
149 445 10000
38 4078 9999
415 1534 10000
16 4218 10000
470 558 10000
158 4122 10000
179 564 10000
249 1185 9999
474 3812 9999
243 2887 10000
326 2059 9999
20 725 10000
87 3820 10000
163 4630 9999
262 845 9999
456 4147 10000
236 354 9999
422 2266 10000
211 3323 10000
191 3780 9999
26 3493 9999
54 3998 10000
439 4264 9999
55 899 10000
399 4280 10000
295 3738 9999
285 2181 9999
365 4638 9999
451 673 9999
402 2327 10000
128 4850 10000
308 1678 10000
224 4260 10000
389 1418 9999
339 1371 10000
174 2599 10000
141 2471 10000
489 1434 9999
287 2443 9999
193 1071 9999
97 1770 10000
40 473 10000
340 988 10000
196 250 9999
33 4752 10000
452 2219 10000
302 3124 10000
426 1736 10000
365 2120 10000
215 3507 9999
85 4692 10000
440 1302 10000
125 1283 10000
144 3659 9999
56 2092 10000
260 3301 10000
97 278 9999
363 1907 9999
114 1074 10000
44 360 9999
430 2458 10000
60 777 9999
265 2378 9999
492 4322 9999
167 1592 10000
463 1839 10000
91 1076 10000
259 3767 9999
54 3473 10000
61 4331 10000
334 4268 9999
276 1337 10000
13 1527 9999
211 4431 10000
373 4372 9999
38 3974 10000
461 627 9999
158 2379 10000
69 648 9999
442 3184 10000
425 900 9999
278 4749 9999
478 676 10000
362 2533 10000
244 4714 9999
194 3236 9999
290 3504 10000
215 1782 9999
287 2495 10000
277 3399 10000
392 2437 9999
75 3793 9999
241 347 10000
37 2347 10000
198 4946 10000
448 2785 10000
266 522 9999
175 3515 10000
236 1839 10000
221 3250 10000
450 2033 9999
234 2833 10000
202 3901 9999
236 4585 9999
34 699 10000
139 4893 9999
52 3942 9999
26 2506 9999
226 4339 9999
317 1442 9999
401 3211 9999
188 4144 9999
40 255 9999
62 4415 9999
340 1417 9999
413 3929 9999
35 3501 9999
409 4854 9999
277 1233 10000
226 2733 9999
404 3644 10000
373 1784 10000
238 2809 9999
381 1413 10000
58 4601 9999
31 4313 10000
69 2350 10000
348 1497 9999
396 724 10000
405 3632 10000
466 4247 9999
159 4768 9999
335 3304 10000
493 4967 9999
382 1307 10000
244 3619 9999
47 1519 9999
56 927 10000
390 3395 9999
81 4898 9999
328 3525 10000
61 1591 10000
323 2850 10000
15 3458 9999
371 2431 10000
206 4950 9999
26 3001 9999
363 1731 9999
63 1432 9999
338 3900 9999
257 1145 10000
213 985 10000
2 1502 10000
259 544 9999
468 3119 10000
118 4552 10000
451 1425 9999
296 580 10000
81 4500 10000
319 3662 10000
68 158 9999
499 4860 9999
27 2614 10000
266 2550 9999
333 3378 10000
215 559 10000
500 710 9999
263 3383 9999
409 4328 10000
416 3514 9999
189 4379 10000
152 3373 9999
77 304 10000
28 1780 10000
416 1296 9999
264 4302 10000
263 2821 9999
490 4588 10000
180 2308 9999
380 614 9999
13 3810 9999
402 853 9999
112 790 10000
19 595 9999
28 2511 9999
330 1756 9999
272 4964 9999
86 705 9999
11 4620 9999
347 771 10000
155 4213 9999
315 2326 9999
41 3731 9999
457 1496 9999
414 1477 10000
427 2482 9999
164 3421 9999
299 809 10000
452 4314 9999
246 557 10000
189 3375 9999
481 4416 9999
375 1952 9999
201 924 10000
217 4288 10000
250 307 9999
371 4668 10000
175 2296 9999
292 2789 10000
78 2210 9999
481 3952 9999
214 2896 10000
281 4008 10000
114 4276 10000
388 3268 10000
117 634 10000
344 383 10000
140 1431 10000
124 3751 9999
481 3922 9999
433 2443 9999
429 3410 10000
12 658 9999
196 4667 10000
10 392 9999
112 1087 9999
433 4277 10000
274 2434 9999
449 540 10000
166 4878 9999
394 1729 10000
471 4433 10000
497 4358 10000
308 3960 10000
339 3368 9999
341 3129 10000
64 3197 9999
150 2150 10000
475 2058 9999
30 2763 9999
492 1154 10000
303 492 9999
374 2746 10000
171 2362 9999
454 1802 10000
240 3339 9999
428 3051 10000
265 3852 9999
345 1654 10000
156 4414 9999
42 2675 9999
176 2920 9999
357 2579 9999
476 1303 9999
127 2075 9999
293 1608 10000
473 4304 9999
38 1263 9999
36 3784 10000
425 3869 9999
145 2389 9999
336 2444 10000
85 1516 9999
412 3481 10000
325 1508 9999
376 4496 9999
173 4917 10000
442 2727 9999
311 408 9999
341 461 9999
439 1695 10000
493 3559 10000
231 316 10000
285 2651 10000
479 1648 10000
34 1088 10000
328 3133 10000
240 1334 9999
274 924 9999
437 4843 9999
389 1896 9999
222 498 9999
301 2784 10000
165 2682 9999
424 4383 9999
398 896 10000
154 3232 9999
46 1203 9999
235 1946 10000
158 2682 9999
353 3389 10000
294 2246 9999
250 3484 10000
182 1144 10000
302 842 10000
222 2166 10000
144 4313 9999
465 4730 9999
312 4142 10000
17 3830 9999
255 4560 10000
179 3989 9999
469 1546 9999
190 2673 9999
398 1600 9999
31 3061 9999
329 1150 10000
1 3103 9999
189 4347 10000
120 3769 10000
306 1955 9999
251 2958 10000
118 1213 10000
256 3274 9999
115 3690 10000
189 1135 10000
465 2692 9999
136 3020 10000
153 430 10000
289 799 9999
347 2199 10000
355 2303 9999
202 4737 10000
395 1851 9999
178 4915 9999
213 280 10000
256 4916 9999
49 650 10000
38 1107 9999
275 4108 10000
476 3053 9999
489 1029 10000
36 1531 9999
467 2972 10000
488 3061 9999
25 1697 9999
317 1376 10000
171 266 9999
286 2294 9999
329 2077 10000
415 4998 9999
490 2244 9999
491 940 9999
165 1817 9999
51 3561 9999
213 3133 10000
376 1415 9999
130 999 10000
441 2683 9999
18 1828 10000
78 1460 9999
138 3495 10000
107 3312 10000
450 2932 9999
286 3609 9999
262 1901 10000
148 1464 9999
305 3005 10000
275 4810 10000
320 2341 10000
426 1147 10000
150 1294 10000
439 1167 10000
440 3288 10000
293 3240 10000
93 762 10000
222 4847 10000
154 4529 9999
431 1236 10000
267 576 10000
266 3404 10000
176 1634 9999
210 3557 9999
15 1687 10000
404 4173 9999
66 3061 10000
176 3404 9999
198 4010 9999
331 1557 10000
14 883 9999
10 3170 10000
110 3623 10000
478 3140 10000
36 3175 10000
258 3785 10000
270 2194 9999
147 2362 10000
395 872 10000
186 2125 9999
430 1558 10000
428 1566 10000
40 3043 9999
116 1281 10000
267 1823 10000
152 2822 9999
472 4958 10000
304 3375 10000
445 1851 10000
489 2003 9999
262 1226 9999
175 4497 10000
176 3163 9999
11 374 10000
436 4489 10000
465 2189 9999
473 1945 9999
418 600 10000
431 1540 9999
283 3995 10000
211 4733 9999
465 3183 10000
489 816 10000
400 499 10000
332 553 9999
166 3404 10000
270 574 10000
163 1006 9999
59 2046 10000
192 3962 9999
137 4749 9999
147 4457 10000
130 2270 10000
330 3097 10000
223 983 10000
379 2991 9999
346 4959 10000
403 1721 9999
353 1137 9999
88 3654 9999
475 4265 10000
271 4532 9999
54 4365 9999
249 3452 10000
180 3872 9999
61 1900 10000
107 3949 10000
330 4378 9999
440 1512 10000
227 2521 10000
346 1148 9999
342 4169 9999
158 4892 9999
42 4424 10000
246 718 10000
228 3913 9999
38 299 10000
134 1067 9999
376 3484 10000
202 2970 9999
328 1821 10000
221 1501 10000
20 4643 9999
453 3168 10000
129 2257 10000
259 2068 10000
112 2275 10000
393 3141 9999
339 2351 10000
370 2787 9999
342 3072 10000
62 4402 9999
365 3403 10000
462 4020 9999
81 3149 10000
431 1037 10000
406 1863 10000
247 1889 10000
410 4556 9999
290 1077 9999
51 3857 9999
105 904 10000
223 3495 9999
232 4982 10000
400 3550 9999
62 3156 10000
239 754 10000
83 417 9999
281 1070 9999
101 2356 10000
357 1246 10000
262 3344 9999
392 4499 10000
204 3918 10000
270 923 10000
139 4817 9999
452 2317 9999
226 499 9999
20 3589 10000
240 4954 10000
50 844 9999
288 3421 9999
30 1342 10000
275 1741 9999
237 1835 10000
466 4725 9999
26 4636 9999
388 3082 9999
420 998 9999
77 400 9999
444 823 9999
124 2265 10000
282 316 10000
69 3824 9999
186 213 10000
311 1488 9999
267 4040 9999
243 2395 10000
8 929 9999
117 3875 10000
307 1370 10000
1 1321 10000
398 3872 9999
21 3275 9999
368 3719 10000
289 1638 10000
406 2162 9999
246 1375 9999
67 3904 10000
15 4402 10000
291 904 9999
85 847 10000
378 4660 10000
403 4447 10000
109 1327 9999
378 2589 10000
241 1438 9999
301 2834 9999
113 351 10000
146 3258 9999
150 2097 10000
411 4582 10000
72 782 9999
434 2983 10000
28 1351 10000
461 3855 9999
114 4431 9999
78 1764 9999
94 955 9999
35 643 10000
491 1857 10000
406 4002 10000
188 2751 9999
74 3170 10000
482 565 10000
364 783 10000
122 453 10000
82 588 10000
254 762 9999
29 3082 9999
472 536 10000
116 3908 10000
486 1883 9999
480 2028 9999
344 2275 9999
85 2180 10000
481 504 9999
359 4629 9999
343 1609 10000
223 4945 10000
312 2034 9999
159 3383 10000
393 2868 9999
182 2769 10000
52 4297 10000
76 1488 9999
127 3387 9999
19 1909 10000
406 2803 9999
4 3984 10000
139 1342 10000
472 4924 9999
207 2937 10000
316 4745 10000
328 4194 9999
402 3661 10000
102 894 9999
35 4402 9999
266 3464 9999
407 3073 10000
141 4422 9999
410 2845 9999
150 2725 9999
87 996 10000
55 3268 9999
229 3227 10000
472 3619 10000
258 4446 9999
260 2473 10000
461 3468 9999
271 2436 9999
201 4241 9999
286 2825 9999
111 3131 9999
96 3028 9999
466 1213 9999
486 4536 9999
227 4765 9999
281 2493 9999
480 2845 10000
87 3605 9999
13 718 10000
394 2057 9999
450 4719 9999
81 1069 9999
347 3660 9999
295 4531 10000
125 1459 10000
290 4506 9999
162 3899 10000
322 2964 10000
202 4493 9999
205 1740 10000
65 1637 10000
315 2763 9999
420 4592 10000
277 2478 10000
249 1603 9999
74 3124 10000
388 2998 9999
8 4938 9999
20 4646 10000
211 3673 9999
116 4384 10000
265 1806 10000
490 2508 9999
220 539 9999
155 3647 10000
191 2444 10000
230 2754 9999
415 2190 10000
65 4039 9999
292 2077 10000
421 3359 10000
216 1499 9999
273 3634 10000
406 3597 9999
153 196 10000
383 1078 10000
410 1302 9999
187 2533 10000
462 825 9999
309 821 10000
84 2728 9999
90 4288 9999
270 925 9999
193 832 10000
55 1264 9999
312 4575 9999
310 4979 10000
55 4382 10000
409 2701 9999
94 4662 10000
42 4332 9999
116 3560 10000
167 860 10000
398 3761 10000
123 3171 10000
441 1012 10000
158 1759 10000
450 3866 10000
328 4219 10000
496 4004 9999
450 2302 10000
59 1328 10000
325 3220 9999
183 3486 10000
414 2956 9999
332 3010 9999
153 1515 9999
95 3669 9999
424 3975 9999
1 1126 9999
48 1395 10000
412 3257 10000
309 2534 10000
71 1924 9999
460 1404 9999
228 1373 9999
143 1747 9999
349 395 9999
433 3353 10000
104 2139 9999
234 3010 9999
363 3202 9999
289 4059 9999
250 2935 10000
21 2778 9999
143 4080 9999
151 4735 9999
177 1058 10000
334 1041 9999
368 1567 10000
461 2579 9999
431 3629 9999
412 4230 10000
231 2022 9999
102 699 9999
318 890 10000
308 3458 10000
44 4338 9999
260 1421 10000
452 628 9999
404 3180 10000
117 3900 10000
318 3177 10000
14 1091 10000
395 2165 10000
237 3173 9999
227 4321 9999
24 865 10000
268 2357 9999
378 2355 9999
368 1520 10000
83 233 9999
240 814 10000
191 415 9999
404 1225 9999
247 833 9999
59 1483 9999
452 3833 10000
399 3202 10000
340 2359 10000
381 4167 9999
64 4120 9999
165 1361 10000
391 1505 10000
67 2245 9999
352 2710 9999
346 625 10000
364 921 9999
217 2752 9999
496 4896 10000
108 442 10000
352 1645 9999
13 1204 10000
391 3814 9999
24 1987 10000
307 1525 10000
264 598 9999
22 4393 10000
436 3174 10000
4 1905 10000
116 539 9999
450 2549 9999
170 517 9999
270 948 9999
491 2934 10000
156 2087 10000
479 2483 9999
24 4246 9999
65 3462 9999
406 1032 9999
74 3098 9999
142 1794 9999
122 707 10000
152 4033 9999
74 3657 9999
170 1985 10000
120 2424 10000
330 1403 10000
292 4336 10000
254 403 10000
111 3231 9999
205 585 9999
461 2509 9999
437 1246 10000
326 3079 9999
373 2140 10000
467 3074 9999
312 2394 10000
310 447 9999
105 375 10000
461 1020 9999
478 1034 9999
434 3427 9999
12 2485 9999
134 1869 9999
475 4140 9999
310 1615 10000
233 4557 10000
267 1334 10000
477 2717 10000
431 1460 9999
285 4293 9999
104 684 9999
42 3114 9999
311 3191 9999
1 626 9999
379 1869 10000
394 3886 9999
92 179 9999
159 1977 9999
294 4318 10000
262 353 9999
484 1958 10000
281 2650 10000
238 3393 10000
499 2036 10000
471 4450 10000
492 2797 10000
96 150 9999
496 4272 9999
408 612 10000
405 2087 10000
62 558 9999
471 4663 10000
94 3863 9999
143 3426 9999
73 1924 10000
157 4456 10000
432 907 9999
94 2497 10000
213 4611 9999
104 191 9999
90 942 10000
430 4234 10000
115 3583 10000
272 1849 9999
274 1467 10000
229 3913 10000
378 2690 9999
352 1898 9999
191 4734 9999
108 1839 9999
52 4819 9999
148 554 10000
267 3297 9999
205 800 10000
433 3476 10000
208 2059 9999
180 2648 10000
137 3656 10000
404 2820 10000
205 1621 9999
454 478 10000
361 584 9999
5 1714 9999
237 2819 9999
134 4185 10000
332 2978 9999
459 2916 9999
372 4402 10000
30 2918 9999
201 3434 10000
314 3721 10000
202 1182 10000
373 3408 9999
208 2350 9999
122 4311 9999
142 278 10000
49 1745 9999
469 1781 9999
284 2599 9999
227 3203 10000
72 484 10000
163 734 9999
275 1812 9999
23 3075 10000
130 4767 9999
440 2361 9999
305 585 9999
235 2652 10000
173 2400 9999
33 2028 9999
14 1696 9999
8 3546 9999
352 2845 9999
166 2834 10000
209 4233 9999
48 148 9999
434 3188 9999
345 1360 9999
127 2645 9999
133 2268 9999
25 3480 10000
200 4490 10000
158 692 10000
424 2230 10000
162 4514 9999
321 3592 10000
191 871 10000
225 2478 9999
299 2844 9999
167 1414 9999
308 4881 9999
116 2210 10000
480 1415 9999
366 4963 9999
176 1480 9999
20 3826 10000
48 2865 9999
491 3196 10000
198 2874 10000
78 2188 10000
411 2791 9999
325 4095 9999
146 1232 10000
269 4193 10000
178 987 9999
354 1253 9999
242 2637 10000
211 3404 9999
216 1975 9999
215 3899 10000
143 3968 9999
144 729 9999
419 1622 10000
242 290 10000
19 2100 10000
499 883 9999
246 4838 9999
334 1436 9999
237 4997 10000
161 1299 10000
139 1218 10000
177 3349 9999
229 1211 10000
213 488 10000
298 4464 9999
378 2502 9999
483 3000 9999
294 2573 10000
393 4651 9999
113 1247 10000
109 421 10000
332 1812 9999
30 3581 10000
58 729 9999
492 2314 10000
470 533 9999
125 1443 9999
275 2809 9999
318 3889 9999
345 4621 10000
216 2017 9999
86 2004 9999
476 860 9999
136 1463 9999
237 4356 9999
300 1802 10000
391 3828 10000
9 4200 10000
421 1355 9999
121 4129 10000
351 2549 10000
365 1675 9999
249 4230 9999
138 847 10000
142 179 10000
339 2071 10000
340 3961 9999
231 4386 9999
340 3623 10000
342 3942 10000
312 2721 9999
251 2316 10000
8 550 10000
194 1678 10000
122 304 9999
453 2223 10000
382 3960 9999
370 681 10000
349 2489 9999
198 3324 9999
340 513 9999
137 2986 9999
377 794 10000
51 1172 10000
219 3961 10000
416 4262 10000
245 3365 9999
278 1695 10000
107 4759 9999
249 647 10000
210 989 9999
462 2696 9999
81 270 10000
495 2682 10000
380 2779 9999
141 2416 9999
195 4410 9999
274 1354 10000
406 1359 10000
48 4670 9999
143 1898 9999
101 462 10000
60 150 9999
456 2086 10000
276 3602 9999
419 2576 10000
316 1584 9999
415 1236 10000
244 2764 9999
60 478 9999
398 1418 9999
304 2733 10000
79 1303 9999
4 3211 9999
276 2414 9999
376 3400 10000
496 2425 9999
62 4016 10000
176 2427 9999
235 2304 10000
366 4449 9999
172 941 9999
278 1486 10000
486 3546 9999
272 876 9999
280 4145 10000
193 4764 9999
5 3158 9999
200 1688 9999
117 1113 10000
322 2120 10000
69 1707 10000
323 1745 10000
497 635 9999
86 2770 9999
358 4162 9999
259 1154 9999
113 3421 9999
134 3531 9999
272 2946 10000
99 2326 10000
454 3055 10000
54 4774 10000
154 1897 10000
78 3105 10000
419 1546 9999
409 421 9999
346 3062 10000
98 469 9999
167 3559 10000
125 3176 9999
142 777 10000
6 3452 10000
429 4498 9999
191 1924 10000
382 1348 10000
294 661 9999
288 3550 9999
458 635 10000
165 480 9999
307 3985 9999
50 2017 9999
267 2052 10000
29 1399 10000
455 2473 10000
440 4039 9999
7 4389 10000
490 1112 10000
142 552 10000
236 4037 9999
289 537 9999
397 1193 9999
293 4398 10000
205 471 9999
467 4312 10000
183 440 9999
271 2531 10000
280 1478 9999
155 377 10000
296 4102 9999
161 4892 9999
346 2412 10000
203 1146 10000
173 3224 9999
429 3957 10000
244 3680 9999
31 3658 9999
130 3876 9999
409 2725 9999
380 3733 9999
300 398 9999
166 2722 10000
35 1220 10000
86 512 9999
400 4940 9999
304 3362 9999
334 1685 10000
169 2838 9999
453 2179 10000
192 4747 10000
247 3213 9999
352 4405 10000
73 1005 9999
383 3194 10000
8 652 9999
474 2038 10000
291 2170 10000
279 2387 9999
103 2633 9999
239 4203 10000
86 787 9999
134 2912 10000
18 4862 10000
56 4242 9999
4 4481 10000
85 2026 9999
29 2016 9999
402 3818 9999
150 2778 10000
99 2609 9999
255 262 9999
37 2144 9999
459 664 10000
220 371 10000
319 2493 9999
217 3049 9999
332 3565 9999
465 4952 9999
453 4851 10000
498 4153 9999
216 874 9999
14 3147 9999
222 353 10000
325 3942 10000
70 689 9999
435 4133 9999
495 3611 9999
448 4243 9999
140 1898 10000
100 4185 9999
89 3170 10000
344 2835 9999
427 4144 10000
356 2791 10000
83 2845 10000
143 3309 10000
32 88 10000
50 3908 9999
31 3660 10000
36 1741 10000
9 3906 10000
168 4026 10000
356 363 9999
199 2961 10000
257 3634 10000
341 1030 9999
80 2762 10000
207 1752 10000
102 2337 9999
180 1839 9999
225 2002 10000
492 4832 10000
170 417 9999
23 2925 9999
407 3581 9999
331 3287 10000
258 2162 9999
203 4107 10000
38 1313 10000
496 4969 9999
235 4459 9999
395 4065 10000
117 2241 10000
275 696 9999
12 3416 10000
204 981 10000
74 3004 10000
162 3579 9999
280 3701 10000
47 2288 10000
36 4510 9999
418 1557 9999
197 3954 9999
157 3732 9999
498 4965 9999
236 1340 9999
376 3434 9999
438 4586 10000
166 3148 9999
138 4578 9999
367 1031 9999
80 2479 9999
89 774 9999
13 1209 10000
290 4653 10000
328 2160 10000
23 2548 9999
475 2403 9999
180 1477 10000
31 1836 10000
304 3586 9999
377 4099 9999
229 2315 10000
453 2015 10000
119 4734 9999
27 3799 10000
480 1091 9999
417 4582 9999
21 852 10000
162 3046 10000
225 1487 9999
451 4360 10000
121 2497 9999
248 1069 10000
289 4864 9999
88 4558 10000
286 1441 9999
161 1543 10000
201 2258 9999
214 809 10000
301 3110 9999
315 3857 10000
487 2327 9999
31 1255 9999
349 2403 10000
138 4969 10000
327 2497 10000
219 592 9999
496 1911 10000
30 155 10000
60 4791 9999
76 2801 9999
421 1770 10000
370 2711 9999
357 1744 9999
333 2606 10000
155 1310 9999
84 2713 9999
27 4045 9999
150 1676 10000
295 1926 9999
142 236 9999
165 3451 9999
33 3038 9999
31 3246 10000
450 4464 10000
158 1665 10000
139 2910 10000
233 2467 10000
87 2155 10000
36 1234 9999
7 1245 9999
181 3007 10000
383 1887 10000
477 3071 9999
482 4852 9999
222 4894 10000
296 4000 10000
173 4574 10000
92 2974 10000
440 4711 10000
430 1261 10000
350 4005 10000
44 1971 9999
137 1215 9999
242 2521 10000
456 4985 10000
480 3456 10000
3 1820 9999
20 1857 10000
143 960 10000
221 249 9999
471 3893 10000
214 3641 9999
194 4431 9999
395 2606 10000
459 4086 10000
253 3238 10000
203 2786 9999
435 4404 9999
109 2309 9999
365 502 10000
410 4284 9999
139 2055 10000
268 3143 10000
163 967 9999
233 974 9999
182 515 9999
129 2941 10000
149 365 10000
444 3404 10000
72 4414 9999
185 3195 10000
107 304 10000
367 1120 10000
65 2577 9999
463 3071 10000
36 3845 10000
106 1095 10000
7 4685 10000
466 4507 10000
21 1361 9999
377 4555 10000
383 2854 9999
356 2934 9999
250 1021 10000
303 3489 9999
89 3689 10000
30 4937 10000
281 2165 9999
435 3563 9999
396 4288 9999
208 4977 10000
297 3427 9999
171 4290 9999
290 4000 9999
286 1630 9999
279 3254 9999
383 1743 10000
213 3257 9999
214 1618 9999
292 971 10000
222 1443 9999
139 4133 9999
429 2427 9999
72 3039 9999
96 4271 9999
286 1650 10000
490 2217 9999
297 490 10000
58 4184 10000
309 2596 10000
407 3495 10000
146 2385 9999
228 573 10000
202 3016 9999
206 3827 9999
232 4337 9999
283 1666 10000
296 4185 10000
216 3857 10000
370 1051 10000
434 2058 9999
38 2944 10000
321 4714 10000
332 1967 9999
20 4215 10000
169 4170 10000
271 1298 10000
492 2749 10000
346 4037 10000
153 1234 9999
258 4539 9999
161 2414 10000
281 686 10000
368 1729 9999
300 1167 9999
319 4752 10000
333 3899 10000
337 1790 9999
357 3623 9999
82 2526 9999
384 1032 9999
241 1985 10000
122 156 10000
330 1018 10000
325 4581 10000
157 3325 9999
413 2950 10000
320 567 10000
242 1456 10000
484 1000 10000
499 4613 9999
445 2837 9999
485 4025 10000
43 3226 10000
265 2957 9999
313 4415 10000
24 4250 10000
162 4102 9999
293 3576 10000
158 427 10000
165 574 9999
257 536 10000
366 2464 10000
140 865 9999
343 1388 10000
127 2025 10000
322 734 9999
303 1557 10000
187 875 9999
469 3464 10000
229 3939 9999
109 252 10000
104 903 9999
354 881 10000
407 4284 10000
485 2152 10000
248 1330 10000
431 4048 9999
125 3762 9999
178 2026 9999
452 1303 10000
202 2366 9999
241 1023 9999
441 1352 9999
178 3053 9999
350 2535 10000
422 1758 10000
18 3056 10000
475 4705 10000
215 3340 9999
74 3830 9999
385 2368 9999
459 3908 10000
160 1362 9999
223 2743 9999
250 544 10000
266 1577 9999
418 3114 9999
285 3841 9999
155 2238 9999
292 2423 10000
298 2412 9999
31 1457 9999
82 4307 9999
176 1191 10000
362 1368 9999
299 2447 10000
233 3813 9999
241 3682 9999
4 38 9999
448 2859 9999
385 4701 10000
327 3507 10000
477 4725 10000
241 2332 10000
241 2031 9999
300 785 9999
364 4866 9999
295 1539 9999
9 84 10000
362 4859 9999
16 3858 10000
10 2290 9999
159 1141 10000
441 1401 9999
101 103 10000
34 1349 10000
399 3886 9999
279 3675 10000
58 2149 10000
252 2435 9999
160 2919 10000
273 1358 10000
500 3877 9999
253 2834 9999
50 4209 9999
2 4171 10000
395 1672 9999
276 1069 9999
427 2834 10000
238 2419 10000
47 3962 10000
442 3454 10000
311 4406 9999
81 1449 9999
110 347 9999
391 1711 9999
416 4743 10000
365 4257 10000
155 1701 9999
411 4237 10000
273 4576 10000
416 1849 9999
276 2158 9999
230 435 10000
248 2105 9999
308 486 9999
401 1406 9999
271 4239 9999
403 896 10000
60 72 9999
347 4155 9999
347 470 10000
289 824 9999
342 1142 10000
70 180 10000
69 4866 10000
446 4549 9999
68 936 10000
67 4313 9999
258 4017 10000
215 2851 10000
434 4927 10000
448 3193 10000
350 2995 10000
402 2989 9999
358 2951 10000
425 3782 9999
245 1452 9999
102 2780 10000
237 4537 10000
487 2018 10000
357 917 10000
334 877 10000
387 4656 9999
15 2311 9999
229 3419 10000
270 3169 10000
356 2706 9999
459 4514 10000
233 4632 10000
302 1936 9999
182 3042 10000
56 727 9999
183 3117 10000
437 1525 9999
42 2853 9999
106 2531 10000
36 4170 10000
218 679 10000
123 4056 9999
147 3171 10000
266 4100 10000
166 4573 10000
84 3140 10000
177 4318 10000
361 3454 10000
304 3264 10000
177 3239 10000
115 4489 10000
310 562 9999
213 3961 10000
385 4605 10000
244 1108 10000
475 3984 10000
111 2947 9999
228 2809 10000
98 3163 9999
409 2635 9999
314 1100 10000
123 2714 10000
169 251 10000
46 59 10000
28 3334 10000
71 4505 10000
433 4292 10000
291 4800 10000
486 4591 10000
194 3645 9999
473 3212 9999
334 1071 9999
414 1055 9999
247 348 9999
455 711 10000
495 932 10000
484 3560 9999
404 2656 9999
500 895 9999
485 4129 9999
171 4144 9999
369 991 10000
330 3971 9999
362 3666 9999
18 522 9999
221 4580 9999
59 326 9999
189 3116 10000
423 460 9999
113 2111 10000
464 2169 9999
5 831 10000
176 3750 10000
498 4755 10000
33 4169 10000
293 4093 9999
364 3336 9999
194 2833 10000
148 3656 10000
458 521 9999
147 3105 10000
154 4585 10000
283 3801 9999
78 3737 10000
137 2492 10000
481 568 10000
315 4304 10000
8 3759 9999
296 3900 10000
172 3424 9999
315 1348 10000
221 2950 9999
350 940 9999
342 490 9999
102 2279 9999
80 2558 9999
197 257 9999
500 2962 9999
56 3065 10000
151 2207 10000
379 1074 9999
217 2127 9999
435 3886 9999
14 3041 10000
323 2651 10000
180 2941 10000
282 2054 9999
489 869 9999
150 831 9999
381 4550 9999
207 4920 10000
255 4812 10000
96 3258 9999
107 4263 10000
394 411 10000
332 653 9999
435 2637 9999
498 714 10000
49 804 9999
311 1828 10000
276 3344 10000
46 4351 10000
408 1614 9999
250 803 9999
282 4682 10000
363 2296 9999
259 3749 9999
140 3917 10000
124 2733 9999
298 4321 10000
104 235 10000
136 3259 10000
250 3490 10000
182 3937 9999
67 2627 9999
433 2463 9999
125 4987 9999
393 992 9999
242 4622 10000
187 3427 10000
401 2700 10000
372 3849 9999
400 3505 9999
40 1675 10000
136 4634 10000
37 216 10000
492 3679 10000
300 2318 10000
185 4350 9999
325 4643 10000
439 2261 10000
402 621 10000
260 592 9999
85 1546 9999
236 2687 9999
163 976 9999
383 1318 9999
402 1250 9999
395 4890 10000
9 4139 9999
124 2044 10000
303 1081 10000
393 739 10000
334 1984 9999
255 4180 9999
242 2379 9999
330 3507 10000
213 1798 9999
487 4432 10000
67 3211 10000
127 917 10000
124 1161 10000
260 3288 10000
478 3023 10000
473 1642 9999
328 4975 10000
468 769 10000
335 3344 10000
93 2341 9999
235 334 10000
405 1313 10000
258 2553 9999
126 1636 9999
411 682 10000
241 3463 10000
410 508 10000
324 4080 10000
211 3128 9999
64 1787 9999
486 3188 9999
415 1310 9999
165 1470 9999
147 997 9999
230 297 10000
430 3403 10000
118 4711 10000
333 3754 10000
300 747 10000
464 3480 9999
176 2997 10000
412 1163 10000
385 786 10000
392 3973 9999
421 927 10000
335 4481 10000
413 1181 9999
157 4868 10000
401 2329 10000
31 4772 9999
166 3742 9999
464 992 9999
45 2213 10000
459 2465 9999
93 4854 10000
382 386 9999
424 3759 9999
296 1812 10000
195 2483 9999
132 831 9999
136 2335 10000
337 939 10000
402 3840 10000
163 2881 10000
218 445 10000
412 4877 10000
57 4365 9999
60 542 10000
385 4463 10000
297 1291 10000
311 4837 9999
407 4659 9999
198 4529 10000
440 4364 10000
13 793 9999
347 4858 9999
81 2468 9999
434 4079 10000
90 2030 9999
471 4647 9999
193 1436 9999
417 4138 9999
297 4419 10000
8 123 9999
75 2486 9999
131 3720 9999
375 4538 9999
157 3993 10000
174 3075 9999
418 867 9999
463 3640 10000
24 2827 10000
134 2240 9999
48 4504 9999
47 1224 10000
19 2679 10000
114 3692 10000
428 3313 9999
317 4985 9999
481 672 9999
264 4883 10000
302 1186 10000
278 4581 10000
46 2429 9999
247 2379 9999
143 2505 10000
240 3510 10000
449 4857 10000
120 4640 9999
107 1274 10000
128 2874 10000
453 4030 9999
206 3854 9999
139 1294 10000
170 2539 9999
269 3617 10000
124 1778 9999
64 549 9999
239 4621 10000
77 4620 10000
442 4981 10000
431 1137 9999
227 3502 10000
315 2207 9999
255 2090 10000
141 3042 10000
355 712 10000
175 1004 10000
444 2172 9999
185 3555 9999
209 2609 10000
26 2544 10000
322 3105 10000
439 1073 10000
275 3606 9999
406 522 10000
74 4578 10000
341 1885 10000
145 3739 9999
492 835 9999
96 360 10000
170 2848 10000
423 4863 9999
7 2926 10000
427 2851 9999
129 909 10000
50 1664 10000
415 973 10000
440 3308 9999
66 1803 9999
211 4022 10000
492 2477 10000
317 3995 10000
13 1816 9999
97 2719 10000
448 3833 10000
435 3092 9999
390 403 10000
355 3544 9999
149 4939 9999
443 2649 10000
468 1035 10000
329 2750 10000
285 2790 9999
63 554 10000
496 2421 10000
209 4119 9999
235 4415 9999
431 4133 9999
60 1655 9999
19 1985 9999
110 3041 10000
294 1665 9999
277 4273 9999
246 4344 9999
103 1201 10000
192 3231 10000
222 4213 10000
93 795 10000
395 3881 10000
153 1959 9999
154 2254 9999
196 2660 9999
402 1018 10000
397 794 10000
245 4037 10000
480 1798 10000
430 1456 9999
342 4315 9999
416 4494 9999
379 1483 9999
129 1594 9999
39 3803 9999
386 2692 10000
411 582 10000
149 2432 10000
351 3577 9999
339 990 10000
172 2732 10000
105 2545 9999
111 1860 9999
49 3687 10000
492 2392 10000
255 4806 10000
275 347 9999
3 4355 10000
424 3049 10000
479 3718 9999
399 3750 9999
57 3299 10000
106 4876 9999
383 2109 10000
82 2331 9999
268 2976 9999
188 4072 9999
104 2499 9999
72 4460 10000
323 3778 10000
1 3620 10000
355 523 9999
274 391 10000
268 507 9999
158 472 9999
371 2635 10000
58 3417 9999
9 1886 10000
375 3883 10000
201 2474 10000
428 4923 9999
365 1733 10000
198 2243 10000
387 2675 9999
437 4523 9999
156 758 10000
195 3916 10000
105 4816 10000
80 3596 10000
463 897 10000
341 811 10000
229 3487 9999
30 3782 10000
44 2120 9999
378 4191 9999
67 684 9999
232 4023 9999
426 2635 10000
333 4299 9999
349 4732 9999
118 2270 10000
325 1037 9999
479 1046 9999
477 3526 10000
233 2936 9999
245 868 9999
130 3762 9999
426 1652 9999
487 4229 10000
40 823 10000
238 1606 9999
171 593 10000
42 805 9999
139 2725 10000
163 251 10000
88 613 10000
283 1635 9999
248 2491 9999
132 4928 10000
2 4812 10000
306 1435 10000
208 3989 9999
423 736 9999
83 2863 10000
354 1824 9999
180 4178 10000
213 4047 9999
449 861 10000
403 2194 10000
58 3794 9999
47 4986 9999
397 3513 9999
3 452 9999
125 3898 10000
380 4177 9999
34 2732 9999
35 309 10000
298 3752 9999
330 1632 9999
10 2506 10000
61 2153 9999
488 2922 10000
365 2692 9999
78 108 9999
171 1330 9999
430 4761 9999
284 2372 9999
36 2360 10000
96 2670 9999
45 2560 10000
13 2008 10000
178 1919 10000
492 1314 9999
243 3078 10000
107 1372 9999
258 4606 10000
93 1171 9999
36 2488 10000
479 2808 10000
33 2602 9999
60 2684 10000
104 3897 10000
209 4155 9999
217 2578 9999
5 3618 9999
438 2877 10000
209 1830 10000
3 2839 9999
145 1852 9999
207 1419 9999
422 4799 10000
20 3406 9999
176 4610 9999
168 4238 9999
226 1789 10000
365 4047 10000
249 2455 9999
67 4088 9999
134 675 9999
255 3216 9999
426 3786 9999
176 4261 10000
480 3185 10000
87 4673 9999
124 781 9999
365 5000 10000
494 4125 9999
496 2463 9999
229 3843 10000
303 4931 10000
403 2799 9999
108 4793 10000
339 2178 9999
333 1653 10000
111 1824 9999
457 1950 10000
129 2421 9999
399 2130 9999
80 2182 9999
397 3723 10000
133 4545 9999
383 4443 9999
49 4343 9999
33 2415 9999
46 2689 9999
26 4523 9999
200 3407 10000
181 3394 9999
19 1946 9999
500 3445 9999
451 1500 10000
8 586 10000
212 3341 9999
387 2420 9999
221 1534 10000
239 4345 10000
285 1128 9999
400 618 10000
313 325 9999
155 4029 9999
299 2691 10000
61 3698 10000
424 1672 9999
118 853 10000
125 4768 9999
155 1476 9999
165 2626 10000
113 3650 9999
146 361 9999
171 433 10000
1 4812 9999
30 3866 9999
300 3426 9999
313 1856 9999
82 2793 10000
363 2714 9999
289 3746 9999
19 2036 9999
371 4227 9999
158 3578 10000
307 2601 9999
262 3912 9999
490 4112 10000
365 4951 9999
288 4418 9999
314 4847 10000
8 3352 9999
331 4143 10000
79 397 10000
350 1205 10000
201 4770 10000
22 4849 10000
411 4234 10000
412 1476 9999
416 659 9999
339 1535 9999
413 4644 9999
61 4025 9999
395 4816 10000
59 196 10000
361 3111 9999
328 1230 10000
14 387 9999
344 4475 10000
368 4385 10000
254 1533 10000
458 905 10000
19 3098 9999
417 2982 10000
163 4710 10000
375 475 9999
158 610 9999
337 4603 10000
462 691 9999
167 2070 9999
133 3661 10000
239 2112 9999
183 2646 10000
448 2424 9999
451 648 10000
470 3651 9999
354 4095 9999
340 1981 9999
446 1672 9999
435 2276 9999
295 3180 9999
161 1651 10000
117 2839 10000
44 2893 10000
290 4149 10000
122 3723 10000
408 2134 9999
470 2832 10000
158 2964 10000
469 4863 9999
52 3063 9999
17 3035 9999
367 4666 10000
99 4535 9999
237 2106 9999
234 2819 9999
295 501 9999
321 2648 9999
75 4900 9999
327 3524 9999
138 1831 9999
291 1946 10000
387 1777 9999
63 1447 9999
323 1492 10000
290 3807 9999
285 2850 9999
258 630 9999
82 628 10000
70 899 10000
258 811 10000
418 3059 10000
178 1292 10000
52 624 9999
9 3117 10000
156 575 9999
33 2825 10000
483 2211 10000
236 780 10000
347 553 10000
446 1358 10000
297 3319 10000
210 2893 10000
336 1709 9999
222 4284 10000
350 4396 9999
464 2627 9999
424 4240 9999
142 857 9999
38 4599 10000
79 219 9999
301 4896 10000
261 536 9999
63 4203 9999
377 1670 10000
76 722 10000
390 4264 9999
458 696 9999
301 2774 10000
408 1144 10000
473 1781 9999
306 1795 9999
445 4017 10000
131 502 10000
373 2371 9999
210 2786 10000
183 3274 10000
187 363 9999
486 4837 9999
191 2849 9999
424 4473 10000
354 1720 10000
223 2085 10000
471 887 9999
330 4120 10000
179 1884 9999
366 1680 9999
1 3951 9999
415 1704 10000
430 4602 9999
206 3892 10000
112 782 10000
59 4805 9999
125 4352 10000
295 3326 10000
463 739 10000
427 4092 9999
166 4318 9999
36 4368 9999
210 4152 10000
202 3076 10000
458 2534 9999
472 1782 10000
74 3161 10000
212 2705 9999
58 645 9999
248 4909 10000
415 3333 10000
103 2297 9999
121 1046 9999
471 4154 10000
440 1359 10000
290 2273 9999
80 855 10000
301 2286 9999
432 1199 9999
475 1697 10000
255 3878 10000
95 4574 9999
298 3206 9999
87 1937 10000
211 2499 9999
349 3720 9999
380 828 9999
489 597 10000
24 4279 9999
393 4364 9999
26 3007 9999
322 2424 10000
44 667 10000
212 1276 9999
315 636 9999
11 2949 9999
288 1412 10000
363 3445 9999
112 2355 9999
22 4448 9999
432 2652 9999
381 3417 10000
475 4447 9999
258 1413 9999
233 3393 10000
336 668 10000
48 851 9999
239 3716 9999
175 651 9999
150 3787 9999
59 3264 9999
331 1863 10000
473 2730 10000
493 4059 9999
208 4072 10000
371 3050 9999
287 2245 9999
371 3509 10000
159 4604 9999
486 886 9999
105 1651 10000
336 1195 10000
172 3531 10000
333 4612 10000
234 2665 9999
359 2530 9999
213 2696 10000
427 1548 9999
32 4501 10000
196 4135 9999
79 274 9999
257 1727 10000
24 1165 9999
114 4696 10000
385 1630 9999
368 1036 10000
211 3917 9999
319 1660 10000
107 261 9999
189 748 10000
330 4708 10000
245 3604 10000
131 937 9999
481 577 9999
104 3636 10000
372 2315 10000
43 3866 10000
40 2886 10000
361 1540 9999
457 2054 9999
12 2054 10000
480 3447 9999
84 1690 9999
320 2318 9999
353 2615 10000
92 2600 10000
215 4196 9999
322 4785 10000
297 1816 10000
487 1412 9999
168 3949 9999
229 4018 10000
17 3352 9999
56 4881 9999
50 3016 9999
279 1956 10000
171 2748 10000
322 609 9999
160 3272 9999
108 4122 9999
461 1620 9999
273 2621 9999
16 2263 10000
489 694 9999
252 4535 9999
322 2347 10000
250 612 9999
435 2280 10000
181 384 9999
27 1404 9999
477 2393 9999
348 2900 10000
276 816 10000
395 3121 9999
182 3445 10000
442 4077 9999
360 3970 10000
262 1395 9999
434 4167 9999
24 2085 9999
31 3233 10000
462 4368 10000
229 4266 9999
281 1111 10000
75 4078 9999
273 2657 9999
446 1868 9999
362 2345 9999
249 2261 9999
431 473 10000
169 3230 9999
117 697 10000
458 711 10000
191 1314 9999
302 3703 9999
230 614 10000
285 2768 10000
432 2256 9999
172 4799 10000
357 4472 10000
255 1786 9999
455 3870 10000
210 398 10000
495 4030 9999
423 2323 9999
296 1646 10000
337 2321 10000
319 3548 10000
42 4557 9999
91 2409 10000
207 1738 9999
300 3589 10000
214 1226 10000
17 2170 9999
480 1768 9999
433 556 10000
361 1085 9999
479 1069 10000
318 4160 9999
44 4956 10000
484 4670 9999
263 3550 10000
60 2042 10000
73 1509 9999
131 604 10000
347 3487 9999
290 676 10000
31 2118 9999
342 3581 9999
291 4898 9999
458 1504 10000
461 473 10000
432 1570 10000
126 4494 10000
64 2157 9999
497 3916 10000
439 3281 9999
203 3608 9999
76 3644 9999
396 1417 10000
98 2854 9999
139 600 10000
393 934 9999
355 569 9999
319 3494 10000
213 3642 9999
208 1361 10000
404 1431 10000
19 2068 9999
295 1574 9999
162 3471 10000
440 2500 10000
445 4305 10000
150 4625 10000
461 2086 9999
431 465 10000
198 3285 10000
183 2893 10000
8 3328 10000
398 824 10000
8 2134 10000
52 461 9999
288 4786 10000
259 4483 10000
48 1177 10000
22 1223 10000
31 3925 10000
230 1893 9999
140 4389 10000
325 4115 9999
281 2613 9999
449 1459 9999
237 4426 9999
29 2628 9999
153 1362 10000
197 4933 10000
409 4892 9999
5 1282 9999
94 2301 9999
288 1569 10000
259 2664 9999
319 1678 9999
312 4908 10000
461 4963 9999
81 202 10000
484 881 10000
116 2943 10000
319 2149 10000
88 3836 9999
340 4345 9999
384 2984 9999
33 1546 10000
12 1766 10000
324 1831 9999
166 4868 9999
348 4967 9999
16 4017 9999
491 2683 9999
311 1873 10000
453 572 9999
422 3564 9999
222 2741 10000
174 4240 9999
455 2631 10000
385 3485 9999
5 4274 10000
76 3687 9999
215 4845 9999
309 2901 10000
37 199 9999
423 2087 10000
413 3532 10000
417 1381 10000
145 2521 9999
148 2307 10000
177 3590 9999
498 1922 9999
387 3243 9999
287 2555 9999
78 4794 10000
368 3076 9999
188 4043 10000
321 4181 9999
6 1818 9999
123 2957 9999
457 2032 10000
406 512 9999
278 492 10000
233 2601 10000
181 3143 9999
128 4375 10000
15 1385 9999
80 4914 9999
91 3882 10000
276 2993 9999
81 4043 9999
411 1302 9999
492 822 9999
397 2774 10000
321 2844 9999
301 678 9999
286 2150 10000
497 1657 9999
36 467 10000
409 4336 9999
38 1715 9999
147 1243 9999
244 771 9999
445 2779 10000
23 4352 9999
368 4175 10000
129 4649 9999
170 3359 9999
317 3159 9999
353 1763 9999
373 540 9999
284 654 10000
310 3171 10000
92 2476 10000
462 4969 9999
318 2975 10000
82 1022 9999
433 2602 9999
362 405 9999
468 1307 10000
312 4642 9999
378 2005 9999
415 2410 10000
247 3937 9999
119 3961 10000
176 734 10000
233 1367 9999
485 3184 9999
428 1419 10000
279 4971 9999
495 4296 10000
174 3281 10000
74 4145 9999
175 2166 9999
204 2394 10000
447 3711 9999
77 3615 10000
289 1206 10000
385 3728 9999
322 3615 10000
496 1397 9999
98 285 9999
224 2621 10000
210 3015 10000
405 2354 10000
24 3421 9999
257 1796 10000
138 3892 9999
186 4189 9999
254 1276 10000
387 3706 10000
328 3450 10000
299 2002 10000
245 4423 9999
13 4952 9999
457 3770 9999
203 641 9999
330 3585 9999
452 2723 9999
398 1246 9999
251 1882 10000
198 4158 9999
452 4889 9999
136 1585 9999
3 3764 9999
281 4100 10000
444 833 10000
32 1834 9999
119 3677 9999
234 3146 10000
146 1751 9999
473 1695 10000
323 1133 9999
484 4375 10000
233 914 9999
306 3464 10000
187 4412 10000
469 2850 9999
68 2119 10000
103 4929 9999
486 2214 10000
263 2884 10000
260 1484 9999
494 2698 9999
342 3825 9999
279 4209 9999
231 2512 9999
263 3034 10000
222 1550 9999
236 3545 9999
322 3970 9999
398 3769 10000
218 3487 10000
152 861 10000
369 4453 9999
246 2358 9999
439 3406 10000
176 3043 10000
270 1855 10000
341 3596 10000
276 2196 10000
480 3198 10000
174 3677 9999
476 2883 9999
238 1071 10000
239 514 10000
456 4888 10000
284 632 10000
294 1146 9999
38 3991 10000
154 1683 10000
382 1892 10000
378 1451 10000
191 4561 10000
88 1671 10000
69 1316 10000
74 2655 9999
323 3327 9999
74 3958 9999
112 4788 9999
212 995 9999
116 3538 10000
267 4721 10000
210 1835 9999
298 3331 10000
57 3317 10000
331 1119 10000
76 4539 9999
133 3319 9999
483 3599 10000
292 1726 10000
381 3564 10000
145 3553 9999
297 3324 10000
117 2666 9999
5 1017 10000
310 503 10000
412 2624 10000
429 4257 9999
312 487 9999
304 704 10000
89 3491 10000
5 3948 10000
486 2306 9999
218 2251 9999
314 2070 9999
335 3457 9999
406 4665 9999
177 3695 10000
168 2213 10000
280 4273 9999
340 4417 9999
359 2065 9999
130 4619 10000
122 4892 9999
57 1183 9999
19 3676 9999
497 4784 9999
31 964 9999
277 2323 9999
334 4060 10000
321 3131 9999
279 810 10000
455 657 10000
410 883 10000
499 1489 10000
127 214 10000
379 707 9999
183 786 10000
457 3907 10000
36 116 10000
339 2162 9999
347 1366 9999
265 2603 10000
81 2932 9999
494 852 9999
213 4305 10000
323 384 9999
5 2139 10000
217 1594 10000
196 3137 9999
4 3675 9999
358 1919 9999
78 592 10000
392 2942 9999
242 992 9999
368 3546 10000
203 1612 9999
358 434 9999
258 3786 10000
159 2670 10000
24 2429 9999
256 2086 9999
369 2166 9999
106 1524 10000
492 2945 10000
327 2232 10000
431 2961 9999
175 4010 10000
146 3062 9999
20 3067 10000
119 4844 9999
124 1231 9999
319 4429 10000
83 4468 9999
39 557 10000
407 1042 9999
393 2050 10000
176 1833 9999
382 3534 9999
189 2952 9999
219 772 10000
180 339 10000
496 4713 10000
122 2375 9999
47 3698 10000
48 201 9999
496 3921 10000
402 3750 9999
99 2515 9999
89 3944 9999
132 4524 10000
401 3405 10000
237 709 10000
302 4489 10000
312 2143 9999
98 1109 10000
420 1314 9999
408 3513 9999
195 1198 10000
331 1134 9999
196 3935 9999
454 2444 9999
42 4883 9999
19 4842 10000
21 3228 9999
23 3793 10000
483 2026 10000
454 1326 9999
417 4339 10000
452 2139 9999
69 4975 9999
64 257 9999
227 4993 10000
322 2939 10000
487 4333 9999
146 4850 10000
179 4864 9999
358 3789 10000
327 3647 10000
467 3293 10000
177 2716 9999
138 773 10000
58 732 10000
411 3127 10000
353 2405 9999
35 2232 10000
71 3262 9999
59 1221 9999
52 1709 10000
68 3222 10000
165 4654 9999
111 2255 10000
43 477 9999
129 1895 10000
337 4245 9999
320 2047 9999
101 4748 9999
419 3923 10000
195 3368 9999
407 3411 10000
235 2590 10000
363 1164 10000
382 947 10000
379 906 10000
20 3422 10000
394 1919 10000
286 1693 10000
261 4927 9999
432 1716 10000
123 710 9999
498 2185 10000
266 4281 9999
96 521 10000
50 3508 10000
197 2001 9999
140 4399 9999
90 2927 9999
496 1299 10000
380 3529 10000
483 3487 10000
412 1646 9999
45 3434 10000
11 34 9999
143 501 10000
235 3624 9999
163 3150 9999
476 2132 10000
480 620 10000
448 2945 10000
96 3027 9999
400 1548 10000
478 1632 10000
455 3202 9999
219 1050 9999
307 3202 10000
3 3889 9999
128 3642 9999
472 3261 9999
240 2175 9999
217 742 9999
377 4708 9999
314 2315 9999
84 978 10000
288 4128 10000
173 4238 9999
496 2922 10000
458 1119 9999
434 1415 9999
453 4896 10000
492 1324 9999
103 2816 9999
112 1864 9999
258 1447 9999
279 1647 10000
142 4160 9999
458 756 10000
37 1880 10000
456 627 10000
124 1162 9999
39 4237 10000
334 3113 9999
127 497 10000
283 2165 10000
261 994 9999
177 3053 9999
300 1210 10000
76 4012 10000
404 3755 9999
98 2947 10000
361 522 9999
392 4367 9999
324 4095 10000
443 4445 9999
372 2910 9999
383 3541 10000
383 399 9999
325 1173 10000
314 3584 9999
127 2266 10000
465 2383 10000
390 1619 9999
484 1094 9999
272 4884 9999
266 3043 9999
372 2602 10000
274 4253 9999
136 4473 10000
485 3686 10000
306 3841 10000
217 4158 9999
89 1626 10000
147 4213 10000
43 2436 10000
382 3950 10000
57 2685 9999
279 679 9999
171 3082 9999
295 1145 10000
51 3739 10000
98 1376 10000
379 4688 9999
393 3262 9999
383 3597 10000
498 4617 10000
390 3323 10000
172 757 10000
11 3288 9999
93 4866 10000
311 792 9999
339 2891 9999
296 2179 10000
224 2015 9999
364 1638 10000
146 2191 10000
129 4399 9999
226 1715 9999
232 4551 10000
349 2223 9999
399 1476 10000
416 2304 10000
103 3249 9999
41 3686 10000
262 2385 10000
34 4789 9999
145 4144 9999
37 1217 10000
40 4065 9999
416 3405 9999
142 2287 9999
315 2372 10000
83 4707 9999
190 207 10000
317 4715 10000
407 784 9999
167 3917 9999
309 4495 9999
325 4424 10000
27 2101 9999
74 1030 9999
177 606 9999
411 748 10000
451 493 9999
293 4131 9999
197 2477 10000
28 1579 10000
442 4523 10000
328 1304 9999
393 2061 10000
222 3816 10000
177 2912 10000
144 1898 9999
228 4158 10000
389 2912 9999
168 2190 10000
178 4727 9999
362 659 10000
10 3178 10000
79 2869 9999
436 3821 10000
380 3765 10000
172 3229 10000
15 2624 9999
143 3300 10000
78 2999 9999
328 3168 9999
135 2746 9999
285 1031 9999
465 4461 10000
431 4836 9999
444 4927 10000
87 4910 9999
214 3321 10000
324 1615 9999
207 4867 9999
446 3689 9999
315 3642 9999
455 4394 9999
252 2731 10000
232 2079 10000
281 4120 10000
74 894 9999
366 810 9999
203 1383 9999
334 1632 10000
314 1508 10000
485 1205 9999
67 1596 10000
121 4868 10000
318 3943 10000
175 336 10000
39 3337 9999
388 991 9999
230 1040 9999
467 3405 10000
113 4516 10000
42 888 10000
475 3774 9999
160 4530 9999
459 2929 10000
366 3765 9999
421 592 9999
217 3411 10000
467 897 10000
376 1750 9999
160 2040 10000
219 1136 10000
382 2153 10000
236 2255 9999
358 1570 10000
185 1399 10000
197 1254 10000
338 4265 10000
73 258 9999
462 2548 9999
101 2902 10000
194 2939 10000
99 2146 10000
485 4378 9999
312 1921 9999
67 4775 9999
208 4133 10000
68 3852 10000
319 2984 9999
160 196 10000
475 2358 9999
11 3762 9999
118 2995 10000
127 3595 10000
13 3277 9999
27 4392 9999
420 1998 10000
448 2088 9999
17 2487 9999
251 364 10000
243 2993 9999
442 4317 9999
489 3909 9999
105 1395 9999
440 1583 10000
371 445 9999
249 2710 10000
117 1261 9999
297 2143 9999
133 4598 9999
413 3593 9999
144 1384 9999
380 3382 9999
137 2163 10000
136 2843 10000
231 1659 9999
155 2938 10000
486 1107 9999
407 3976 9999
34 4153 9999
56 3864 10000
456 1780 10000
319 2184 9999
97 4574 10000
498 1986 10000
180 1368 9999
299 4647 10000
278 3618 10000
77 1056 9999
291 2729 9999
363 2427 9999
416 3180 9999
339 670 9999
398 3228 9999
176 3758 9999
58 2286 9999
296 3123 9999
189 1785 9999
117 1971 10000
455 4445 9999
180 3503 9999
161 3606 10000
63 1244 10000
460 576 10000
98 2220 10000
115 734 9999
42 2095 10000
299 4084 9999
158 4912 9999
347 4736 9999
495 4204 10000
26 1809 9999
445 862 10000
85 4139 9999
152 1874 10000
254 914 10000
122 2217 10000
115 481 9999
44 3731 9999
51 2002 10000
467 4559 10000
54 494 9999
253 4344 9999
355 1555 9999
154 1153 10000
213 3091 9999
316 4729 9999
185 3609 9999
15 2616 10000
74 4457 10000
122 3780 10000
259 2175 9999
449 737 9999
376 4556 9999
59 693 9999
339 1952 9999
388 3193 10000
1 3642 10000
454 4121 10000
372 3747 9999
484 890 10000
464 693 9999
339 2838 10000
50 1940 9999
445 4021 9999
141 1317 10000
188 4872 10000
255 4486 9999
168 2362 10000
129 168 9999
142 650 10000
64 1765 10000
437 3225 9999
199 4858 9999
360 2134 9999
136 2075 9999
143 3972 9999
315 1449 10000
351 3810 9999
114 4311 9999
38 4867 9999
410 3017 10000
97 2304 10000
26 4660 10000
45 2305 9999
420 4673 10000
192 2760 9999
128 1070 10000
239 2958 9999
388 3433 9999
399 2753 9999
382 3291 9999
371 4611 9999
492 3364 10000
100 2615 10000
91 2305 9999
51 3183 9999
305 714 9999
243 551 9999
133 1292 10000
472 3644 9999
446 4961 10000
147 2837 9999
68 3086 10000
324 915 10000
417 658 10000
407 685 9999
478 2169 9999
466 921 9999
21 788 9999
398 2803 10000
364 4927 10000
138 1631 9999
136 4547 9999
126 588 10000
458 2241 9999
258 617 10000
254 2356 9999
179 4310 9999
58 1114 10000
177 1305 10000
299 1231 10000
368 4267 10000
427 629 10000
429 3690 10000
55 279 10000
437 1308 9999
340 3090 10000
182 2594 9999
28 3271 10000
181 4192 10000
80 2613 9999
107 775 9999
385 4877 10000
433 499 9999
102 3663 9999
353 767 9999
235 1052 9999
166 802 9999
311 464 9999
215 1552 9999
71 239 10000
55 3806 10000
214 2704 10000
262 3999 9999
292 757 10000
372 2332 10000
69 366 9999
446 1952 10000
290 2772 9999
169 1837 10000
199 1808 10000
476 4791 9999
62 1327 9999
437 1767 9999
279 1346 10000
381 1755 10000
101 3383 10000
364 2617 10000
444 2615 9999
254 1575 9999
124 877 9999
184 4757 10000
402 692 10000
85 1000 9999
377 2661 9999
421 1768 10000
55 3080 9999
387 2570 10000
232 3867 9999
120 2466 10000
291 439 9999
490 1960 10000
112 2377 9999
365 430 10000
348 3678 9999
321 1291 10000
363 527 10000
131 1229 10000
358 2050 10000
231 1761 10000
122 4979 10000
329 2196 10000
498 1380 9999
70 3758 10000
263 2885 10000
333 4133 9999
367 617 9999
403 2387 9999
484 4827 10000
70 1019 9999
143 3080 9999
391 4387 10000
355 1037 9999
241 2275 9999
292 1323 10000
183 1579 10000
410 1406 10000
133 1549 9999
470 4719 10000
429 3517 9999
77 2378 9999
143 247 10000
372 3740 10000
433 2003 9999
329 3467 9999
441 2257 9999
380 417 10000
415 3917 9999
67 3372 10000
370 4495 10000
236 577 9999
94 131 9999
415 799 10000
409 1190 9999
74 178 10000
496 1641 9999
62 3438 9999
58 623 9999
283 2787 9999
101 1813 10000
230 3136 10000
85 4305 9999
397 2299 9999
447 1960 10000
218 1443 9999
6 1907 9999
382 701 10000
348 4868 9999
86 3330 9999
260 3328 9999
2 1778 9999
291 4832 10000
390 1852 9999
145 4784 10000
227 3160 9999
332 2033 9999
361 1830 9999
204 2520 10000
200 2880 10000
100 3303 10000
158 688 10000
75 1253 10000
93 1848 9999
410 1024 9999
71 642 9999
304 2204 10000
251 1510 10000
87 2063 9999
29 3706 9999
73 885 9999
350 651 9999
226 2954 10000
171 681 10000
235 2779 9999
22 2697 9999
26 3897 10000
339 3439 9999
431 4282 9999
468 1549 9999
275 461 9999
441 4567 9999
462 3510 10000
211 4531 9999
446 1597 10000
482 4980 10000
85 3074 9999
400 3202 9999
237 298 10000
330 2334 10000
96 4809 10000
415 2679 9999
117 300 9999
353 1444 10000
478 1927 9999
284 2391 9999
193 1313 9999
138 1870 9999
256 2669 10000
64 2108 9999
492 4144 9999
227 3767 10000
255 1808 10000
487 3105 9999
131 4332 9999
29 3667 10000
81 4627 10000
379 1575 9999
29 1984 9999
458 4205 10000
79 4447 9999
358 3574 10000
417 539 9999
26 3222 9999
76 4899 10000
149 652 10000
496 2425 10000
342 4349 9999
235 2112 10000
270 4567 9999
63 230 10000
227 4169 9999
202 3803 9999
89 2775 9999
110 4577 9999
432 1504 10000
106 1047 10000
326 1381 10000
139 1371 10000
451 2926 9999
301 3646 10000
500 1706 9999
261 2123 9999
351 1933 10000
90 1554 9999
456 3353 9999
128 2458 10000
217 1296 10000
363 693 10000
192 3798 9999
404 2174 9999
256 4035 10000
205 3810 10000
482 4234 10000
165 2032 9999
291 2596 10000
107 1698 9999
230 3274 9999
246 944 9999
62 2566 10000
442 1407 9999
463 2191 9999
290 1157 9999
447 4347 9999
146 2571 9999
214 1479 10000
491 3054 10000
431 4351 10000
478 4307 9999
4 1865 10000
54 2383 10000
154 1064 10000
494 641 10000
137 3826 10000
371 4019 10000
159 4274 10000
179 3710 9999
295 3724 10000
252 1276 9999
83 1733 9999
288 2202 10000
426 4370 10000
279 2889 10000
117 1020 10000
394 2737 9999
385 3396 9999
121 2750 9999
17 2620 9999
389 3975 10000
225 2064 10000
172 3772 10000
266 2497 10000
407 1627 9999
115 3017 10000
280 4424 10000
1 1844 9999
466 505 10000
190 852 9999
85 1056 9999
242 2090 9999
325 3823 10000
48 2498 9999
307 1509 9999
101 3879 10000
369 2612 10000
298 2935 9999
203 4435 9999
419 3823 10000
215 2832 9999
21 2505 10000
143 4323 9999
181 413 9999
466 4650 10000
259 4714 9999
24 1548 10000
396 3526 9999
2 656 10000
380 2988 9999
118 370 9999
52 3723 10000
182 4888 9999
420 3433 9999
358 3247 9999
315 439 9999
402 2992 10000
104 4717 10000
228 3418 10000
93 4556 10000
359 1535 9999
234 1268 9999
232 2798 10000
190 1774 10000
425 1073 9999
409 2961 9999
188 250 10000
263 4430 9999
313 2702 9999
239 1242 10000
344 3548 9999
395 2726 10000
39 4650 9999
266 1140 10000
121 775 9999
393 3596 9999
210 2125 9999
72 260 10000
38 3165 10000
37 1548 9999
256 4839 9999
298 3379 9999
371 4887 9999
470 698 9999
191 2758 10000
267 2522 10000
109 3032 10000
462 709 10000
56 948 9999
3 2099 9999
454 1955 10000
307 562 9999
47 172 10000
259 2800 10000
275 4224 10000
449 3801 10000
233 3797 10000
256 2490 10000
110 3296 10000
208 1333 10000
61 204 9999
153 1355 9999
17 1815 10000
187 4837 9999
74 347 10000
211 1778 10000
459 3452 10000
445 3773 10000
224 664 9999
125 2177 9999
441 4775 10000
413 2368 10000
154 3504 10000
154 2996 9999
160 2500 9999
77 4119 10000
428 640 9999
231 972 10000
196 1076 10000
95 501 10000
420 1010 10000
285 3916 10000
138 4322 10000
191 3204 9999
59 2275 10000
62 4405 10000
352 413 10000
499 577 9999
473 4736 10000
136 1912 10000
15 1995 10000
132 1647 9999
473 2836 9999
426 2973 10000
103 3912 10000
263 4536 9999
32 2583 9999
95 2206 9999
189 4132 9999
180 3512 9999
317 1605 10000
203 1268 9999
339 1960 10000
277 4112 10000
253 2822 9999
113 3612 10000
248 1466 9999
352 1099 10000
452 4857 9999
498 4511 9999
172 1097 9999
460 680 10000
131 435 10000
204 4808 10000
425 4651 9999
400 4459 10000
45 2266 10000
358 3683 9999
272 423 10000
29 279 10000
109 4821 10000
339 581 10000
280 1429 9999
208 4667 10000
93 2339 10000
148 3006 10000
117 1541 10000
425 4077 10000
351 2535 9999
251 1131 9999
340 2153 9999
188 4492 10000
159 882 10000
422 3744 10000
339 1341 10000
145 773 10000
478 1408 10000
165 891 10000
496 4903 10000
441 2444 10000
269 1198 9999
358 2085 10000
179 3024 10000
353 786 10000
173 4967 9999
18 4898 10000
125 2598 9999
431 1258 9999
478 581 9999
379 3219 10000
142 1008 9999
330 1961 10000
477 605 10000
44 3403 10000
374 4092 10000
474 4408 9999
46 1072 9999
211 879 9999
60 2815 9999
14 428 9999
324 2119 9999
328 1292 10000
402 3594 9999
29 1967 9999
278 2853 9999
55 1240 10000
251 463 10000
378 2377 9999
459 4286 9999
371 849 9999
207 1138 10000
309 2624 10000
223 1717 9999
286 4023 10000
448 3608 9999
215 2808 10000
154 578 10000
206 4296 9999
65 3835 9999
378 4350 9999
336 3369 9999
159 2433 9999
91 3546 9999
104 4191 10000
57 4455 10000
436 3257 9999
383 549 9999
139 4030 10000
313 1860 10000
397 2450 9999
156 4432 10000
60 236 10000
249 2548 9999
494 3868 10000
82 960 10000
197 1878 10000
293 4376 10000
42 1567 9999
397 1682 9999
359 1317 10000
446 2638 10000
57 534 10000
113 2128 10000
477 1306 10000
133 227 10000
484 4601 9999
178 903 10000
2 4487 9999
471 1707 10000
404 1087 9999
203 3032 10000
114 4939 10000
464 3559 10000
202 1662 10000
489 3431 10000
100 978 9999
2 1421 9999
90 1388 9999
321 2530 10000
215 1877 10000
428 1705 10000
467 4517 10000
39 4035 9999
168 3973 9999
341 3691 10000
361 3827 10000
204 3404 9999
200 2618 9999
432 3172 9999
183 2036 9999
136 3750 9999
148 4031 10000
100 2841 10000
156 1219 9999
488 1448 10000
368 4731 10000
36 4728 9999
58 2284 9999
140 4984 9999
170 4106 10000
84 3129 9999
91 1387 9999
355 2539 9999
62 1365 10000
242 1464 9999
52 2708 9999
482 2484 9999
339 4319 9999
122 1673 10000
397 3078 9999
326 2009 9999
89 2942 9999
290 892 9999
238 1827 9999
229 3467 9999
419 1681 10000
75 2584 9999
124 400 9999
201 4996 10000
32 83 9999
412 2797 10000
59 184 10000
414 675 9999
442 3923 10000
480 4381 10000
134 3157 10000
304 4500 10000
8 4833 9999
207 1722 10000
58 1667 10000
265 2497 10000
124 2372 10000
446 3895 9999
291 3534 9999
127 1430 10000
374 999 9999
454 4154 10000
65 1131 10000
367 3337 9999
12 3007 9999
322 3486 9999
469 586 10000
282 546 9999
345 499 9999
304 1579 9999
474 4501 10000
90 4129 9999
105 234 9999
406 3772 9999
226 3356 10000
83 4237 9999
266 1167 10000
163 4050 9999
450 4799 9999
3 2235 9999
298 1817 10000
363 3290 10000
230 3820 9999
159 1356 9999
68 135 9999
4 4874 9999
169 1802 9999
209 353 9999
379 3829 9999
218 3880 9999
43 1098 9999
332 2021 9999
186 1790 9999
265 2950 9999
88 1663 10000
317 2935 10000
10 3663 9999
282 4156 10000
91 964 9999
40 4805 10000
371 3347 9999
335 1212 10000
52 2085 10000
443 3495 10000
228 2745 10000
355 3971 9999
93 4337 9999
405 2483 9999
237 4475 9999
172 2963 10000
12 4681 10000
307 467 9999
175 4296 9999
289 1190 10000
132 4565 10000
353 1351 10000
115 1751 9999
208 803 10000
71 2387 9999
359 1579 9999
201 389 10000
311 3681 10000
170 3941 10000
339 2364 10000
269 4338 9999
483 2891 9999
279 2653 9999
255 311 10000
14 3085 10000
193 719 9999
332 428 10000
422 991 9999
352 819 10000
480 2784 9999
500 4421 10000
85 4326 9999
399 4934 10000
312 1072 10000
252 4160 9999
340 3031 9999
426 2153 9999
472 1993 9999
91 296 10000
236 4570 9999
313 2756 9999
447 1082 10000
361 919 10000
416 1263 9999
9 1044 9999
112 682 9999
1 2387 9999
228 4500 9999
293 3310 10000
243 2509 9999
307 3198 9999
376 3122 9999
188 4499 10000
261 1019 9999
93 1457 10000
250 4674 9999
357 4309 10000
192 585 9999
365 4794 10000
315 3351 10000
155 203 9999
32 2327 9999
498 1752 9999
421 2173 9999
379 4122 10000
188 2775 10000
486 1917 10000
409 2837 10000
458 4326 9999
328 2620 9999
102 3844 9999
328 1199 10000
491 4632 10000
273 472 9999
55 3133 10000
340 2883 9999
427 2164 9999
218 686 10000
205 1561 9999
59 2916 10000
233 4457 9999
324 1072 9999
237 4631 9999
260 2506 10000
208 4698 9999
389 3074 10000
497 1538 9999
472 3451 10000
283 1634 10000
338 4485 9999
352 2340 10000
380 4829 9999
431 4107 10000
68 1743 10000
71 1299 10000
241 867 10000
319 4886 10000
381 2338 10000
28 495 9999
64 3330 10000
252 620 9999
112 1268 10000
233 3531 9999
278 4639 9999
455 3418 10000
256 4334 10000
441 4540 10000
194 1489 9999
92 1197 9999
121 1305 9999
101 2705 9999
177 2988 10000
480 2280 10000
213 531 9999
335 2844 9999
339 1108 9999
404 3081 9999
318 3198 9999
455 2447 10000
369 812 10000
410 4272 10000
62 118 9999
347 2861 10000
34 3018 9999
227 1446 9999
278 3900 9999
69 1898 10000
499 1567 10000
347 4233 9999
134 716 9999
430 1451 10000
478 3590 9999
150 4865 10000
98 1691 9999
262 3375 10000
102 1321 9999
213 566 10000
375 4028 9999
168 2542 10000
289 605 9999
119 381 10000
113 780 9999
494 3738 10000
475 1949 9999
123 4884 10000
90 2793 9999
359 1404 9999
222 3664 10000
152 3354 10000
225 885 9999
37 2282 9999
201 4381 10000
57 2155 9999
7 4353 10000
460 1684 9999
53 2502 9999
227 3538 10000
196 4359 10000
377 3706 9999
476 2151 10000
379 4127 10000
370 1846 10000
99 4836 10000
128 4854 10000
282 4772 10000
81 303 9999
460 2142 10000
158 1121 10000
466 957 10000
225 3938 9999
113 615 9999
421 2599 9999
345 2757 10000
227 2227 10000
40 3831 10000
466 2955 10000
174 2203 10000
136 3654 10000
235 857 10000
321 3316 9999
48 4226 10000
179 460 10000
137 4873 10000
161 3562 9999
31 3722 10000
360 2422 9999
94 3291 9999
285 4135 9999
101 1422 10000
346 1751 10000
451 4734 9999
70 2511 10000
390 1526 10000
273 4370 10000
481 1206 10000
236 2198 9999
291 3011 9999
342 2083 10000
379 3794 10000
365 2307 10000
324 3610 10000
391 1532 9999
460 4737 9999
51 86 9999
500 1735 10000
314 1893 10000
105 3662 9999
272 3002 10000
177 4299 9999
298 507 10000
133 4172 9999
140 4973 10000
260 4631 10000
481 4491 9999
258 2437 10000
149 1202 10000
449 3152 9999
342 762 10000
279 4462 9999
6 3006 10000
244 2250 9999
134 3939 9999
409 1901 10000
353 3141 10000
166 4794 10000
313 2725 9999
206 2467 9999
328 3482 10000
122 1810 9999
177 2805 10000
182 2782 9999
454 3356 9999
369 689 9999
470 1748 10000
94 4675 9999
481 1904 9999
328 971 9999
219 3135 10000
228 3519 9999
172 815 10000
27 2748 10000
193 4482 9999
340 2265 9999
477 4052 9999
158 1963 9999
301 2290 9999
149 4782 9999
191 199 10000
276 1806 10000
432 498 10000
330 1366 9999
214 2154 9999
370 3525 10000
388 4454 10000
72 3642 10000
256 4302 10000
331 1360 9999
230 3450 9999
160 1511 9999
450 2668 10000
376 2986 9999
497 802 10000
147 4751 9999
219 2769 9999
134 3864 9999
458 1691 10000
451 754 9999
485 4882 9999
118 1634 10000
8 3272 10000
320 1234 10000
289 747 10000
176 177 9999
418 4858 9999
103 2804 10000
288 1105 9999
37 2769 9999
195 3190 9999
239 4695 10000
162 4954 10000
10 3152 10000
482 2745 10000
184 208 10000
192 3840 9999
28 3982 10000
464 3485 9999
177 3357 9999
442 2946 9999
9 1000 9999
260 993 10000
378 1674 10000
377 472 9999
240 2936 10000
87 3633 10000
487 4141 10000
358 511 9999
113 877 10000
443 4504 9999
38 1128 9999
199 3558 10000
53 2541 10000
468 1826 9999
275 2209 9999
18 1602 9999
437 525 10000
127 2212 9999
57 2836 10000
468 2201 10000
51 4811 9999
137 2526 10000
352 2429 9999
158 2691 9999
426 4424 9999
19 3623 10000
415 4700 10000
169 406 9999
166 1443 9999
479 2665 10000
71 668 10000
251 3924 10000
160 4693 10000
417 1906 9999
238 664 9999
407 2924 9999
155 1397 10000
187 2639 9999
130 1913 9999
170 1161 10000
373 2008 10000
63 2288 9999
451 725 9999
321 4815 9999
23 568 9999
150 1252 9999
357 3394 9999
310 3828 10000
456 1217 10000
354 4208 9999
379 4332 10000
470 1814 9999
241 2774 9999
308 1934 10000
274 2088 10000
471 833 10000
317 688 10000
390 1178 10000
155 3445 9999
27 1865 10000
77 1650 10000
189 2101 10000
204 375 9999
99 2011 10000
225 4474 10000
351 1617 10000
274 4655 10000
242 4169 9999
301 1977 10000
234 2626 10000
84 447 10000
355 1510 9999
162 4047 10000
37 2627 10000
444 528 10000
300 342 9999
344 4655 9999
8 434 10000
152 2811 10000
28 3610 9999
481 2070 10000
340 1446 10000
335 2801 10000
412 1537 10000
8 3775 9999
390 870 9999
63 3061 10000
36 270 9999
12 2645 10000
245 3569 10000
224 578 10000
56 4073 9999
27 2887 9999
50 493 10000
384 1826 10000
489 2823 10000
55 252 9999
340 1623 10000
7 1087 10000
362 391 10000
411 1135 9999
335 3109 9999
404 4555 9999
392 3063 10000
105 4400 9999
303 1049 10000
432 2939 10000
350 2869 10000
77 3148 9999
325 4010 9999
348 4234 9999
226 268 9999
217 4972 9999
223 4852 9999
361 4326 10000
223 3668 10000
490 4858 10000
30 1755 9999
408 2191 10000
238 4570 10000
363 4468 10000
222 4669 9999
135 3575 9999
137 1835 10000
265 1015 9999
389 3336 9999
391 2454 9999
401 4728 9999
289 960 9999
323 4030 10000
64 2537 10000
472 1029 10000
82 2807 10000
197 4188 10000
319 2531 9999
402 519 9999
14 2872 9999
321 2893 10000
108 1580 10000
445 3326 9999
485 3576 10000
185 220 9999
473 2238 10000
206 3706 10000
94 3620 10000
244 4354 10000
48 2575 10000
246 4761 9999
277 2859 10000
98 4802 10000
317 3447 9999
106 4479 10000
381 2764 10000
146 4198 10000
115 2288 10000
126 4267 10000
290 4369 9999
382 1209 10000
140 1290 9999
343 4492 9999
27 1148 10000
251 3805 10000
33 4328 9999
14 4320 10000
364 4415 10000
228 4426 9999
77 940 9999
149 1275 10000
63 4266 10000
490 3553 9999
302 4237 9999
115 4271 9999
178 4471 10000
161 247 10000
31 227 9999
58 226 10000
447 2867 9999
61 2949 10000
431 2903 10000
159 4143 9999
83 2939 9999
408 2190 10000
232 4152 9999
332 353 9999
17 2714 10000
30 1923 10000
274 4020 10000
153 2245 10000
400 1435 10000
14 2367 10000
282 1922 9999
40 3175 9999
388 4653 10000
361 3807 10000
232 3146 10000
294 4886 10000
65 1469 10000
467 2367 10000
73 3677 9999
100 1007 9999
260 1492 10000
63 1309 9999
77 547 9999
408 1631 9999
39 1629 10000
489 2491 9999
327 3063 9999
18 3002 9999
497 2929 10000
174 4760 10000
54 1960 10000
54 216 10000
288 2480 10000
464 2069 9999
398 1467 9999
214 4103 10000
222 4958 9999
472 4441 9999
91 2724 9999
162 2124 10000
437 1003 10000
349 1478 10000
254 3460 10000
440 1803 10000
331 474 10000
58 2506 10000
302 2775 10000
375 2081 10000
209 325 9999
346 951 10000
226 2084 10000
478 4794 9999
350 2066 10000
142 2681 9999
274 3238 9999
141 4697 10000
113 1126 10000
184 3943 9999
180 3846 10000
237 4750 9999
190 1273 10000
499 3482 10000
218 1637 10000
253 375 9999
76 4502 10000
308 1489 9999
92 2340 10000
122 2089 9999
48 4753 9999
108 1268 9999
354 3182 9999
255 3326 9999
98 4288 10000
161 2623 10000
415 3185 10000
220 2334 9999
397 1392 9999
314 2657 10000
293 2908 10000
340 2372 10000
339 3243 9999
84 4067 9999
260 1428 9999
193 3495 9999
175 2019 9999
163 3156 9999
189 4110 10000
415 4439 10000
372 832 9999
267 4329 10000
457 4148 10000
421 537 9999
495 2628 9999
3 2971 9999
20 4578 9999
273 4432 10000
3 463 9999
143 434 9999
449 1217 9999
1 4499 9999
16 2043 10000
10 3521 9999
285 2685 10000
480 2955 10000
90 2442 9999
468 566 9999
461 4914 9999
18 3374 9999
176 1423 10000
25 4816 9999
347 4847 10000
218 3758 10000
339 646 9999
25 2137 9999
222 647 9999
197 4151 10000
62 1302 9999
426 3735 10000
335 3971 9999
224 4974 9999
384 4093 10000
7 3358 9999
176 3705 9999
294 784 10000
315 4232 9999
403 3948 9999
98 4387 10000
381 3296 9999
429 2537 10000
68 4668 10000
334 3257 10000
167 4087 10000
426 4055 10000
350 4297 10000
55 4820 10000
209 3809 9999
94 3700 10000
11 952 9999
297 3684 10000
84 4105 10000
388 3974 9999
270 900 10000
170 2846 10000
483 2951 10000
208 2799 9999
413 2256 9999
310 3079 9999
111 3697 9999
151 1711 9999
165 2427 10000
358 4816 10000
103 2886 10000
162 479 9999
117 4841 10000
80 4804 9999
170 1874 10000
140 792 9999
374 3150 10000
292 2269 9999
146 2203 9999
25 2377 10000
265 3148 10000
358 2232 9999
40 2316 10000
482 2870 10000
304 4502 10000
357 3412 10000
38 2341 9999
403 1449 9999
239 4753 9999
287 3174 10000
421 4491 10000
380 1779 9999
156 4854 10000
5 1392 10000
233 4978 10000
346 2401 9999
144 4634 9999
362 2318 10000
143 2010 9999
31 2418 10000
59 4032 10000
479 1805 9999
260 1586 10000
427 3846 9999
237 3506 10000
366 1173 9999
51 1652 10000
360 4945 9999
442 1546 10000
359 4432 9999
96 2919 10000
219 456 10000
74 3294 9999
274 1326 10000
69 1505 10000
192 295 9999
246 4298 10000
32 832 10000
388 4673 9999
45 379 9999
377 3111 10000
339 3316 9999
334 4540 10000
436 4199 9999
40 2118 9999
465 2788 9999
97 1589 9999
93 4922 9999
77 1329 10000
371 3752 10000
338 1725 9999
492 1121 9999
396 4312 10000
8 4493 9999
462 2679 10000
23 3557 9999
477 3815 9999
462 4884 9999
188 3428 9999
497 4600 9999
318 4199 10000
157 4006 10000
288 3959 9999
77 1392 10000
246 2795 9999
497 4521 9999
411 945 10000
150 2691 9999
113 262 10000
63 2898 9999
219 3883 9999
85 1923 10000
314 3007 10000
258 1758 9999
241 1755 9999
33 2820 9999
49 1827 10000
131 1974 10000
422 4141 9999
309 1912 9999
411 4163 10000
1 3230 10000
243 493 9999
492 4226 9999
314 4586 10000
94 3591 9999
398 2121 10000
130 4935 10000
396 1329 10000
142 4186 10000
106 1805 9999
206 1913 10000
413 2643 9999
433 2481 9999
206 909 9999
348 4105 10000
98 3138 10000
185 4174 10000
157 3556 10000
465 4752 9999
434 2678 9999
235 3808 10000
266 1557 9999
8 2458 10000
469 3347 9999
128 1806 9999
61 427 10000
500 4894 10000
36 1960 9999
219 2208 9999
2 931 10000
354 3293 10000
265 3888 9999
388 3044 9999
283 4436 10000
416 610 10000
424 3347 9999
9 2727 9999
135 2964 9999
455 2531 9999
437 1574 9999
158 4463 10000
158 2229 10000
239 4518 9999
102 2631 10000
265 1868 9999
321 1480 10000
332 1417 10000
432 1832 10000
63 302 9999
324 1845 10000
293 1257 9999
1 4524 9999
7 4922 10000
144 4176 10000
216 4322 10000
360 3619 9999
355 1033 9999
278 3042 9999
266 2825 9999
289 3969 10000
220 3505 9999
20 2219 9999
240 2938 10000
126 1265 9999
211 4211 9999
106 4196 10000
15 2946 9999
288 475 9999
280 2825 10000
450 4704 10000
332 3031 10000
5 350 10000
107 664 10000
485 2575 9999
106 746 10000
369 1178 10000
268 3328 9999
313 2373 9999
402 3202 10000
15 1822 10000
84 4132 10000
44 3103 9999
410 1296 10000
49 2770 10000
23 3279 9999
71 3994 9999
333 3650 9999
345 1563 10000
86 1333 9999
418 2049 10000
256 2290 10000
137 2706 10000
139 3777 9999
93 4133 9999
301 4097 9999
155 1888 10000
172 4479 10000
335 4285 10000
374 1495 9999
408 4118 10000
148 4990 9999
456 3652 9999
224 2407 9999
205 3098 9999
82 2905 10000
89 3657 10000
434 2992 10000
116 2898 9999
328 2092 9999
220 1653 10000
138 1227 9999
10 2832 9999
99 4218 10000
360 2763 10000
137 797 10000
333 3645 10000
442 3578 9999
187 3359 9999
495 2951 10000
180 292 10000
424 2641 9999
383 2409 9999
177 1829 10000
375 2255 9999
143 504 10000
464 4181 9999
127 4024 9999
63 3783 9999
183 677 9999
95 4741 10000
87 3542 10000
287 585 9999
240 2551 10000
306 4799 10000
217 4420 10000
112 3062 10000
285 1380 9999
496 2612 9999
351 2354 9999
388 4202 10000
443 3105 10000
100 457 9999
431 2787 9999
420 2507 10000
389 2016 9999
7 3400 10000
465 2361 9999
431 4847 10000
230 2517 9999
148 4661 10000
184 2360 9999
479 968 9999
296 3359 9999
432 3061 9999
338 4348 9999
130 4300 9999
141 3898 10000
271 4238 9999
333 1710 9999
171 2076 10000
356 3409 10000
148 3107 10000
496 1225 9999
320 3918 9999
444 915 10000
52 4272 9999
312 3819 9999
168 986 10000
216 2128 10000
287 1920 10000
410 2388 10000
55 2846 9999
473 4865 9999
50 2396 10000
302 2964 9999
75 2118 10000
65 1964 10000
211 2792 9999
27 2890 10000
430 3371 9999
468 3047 9999
481 3433 10000
492 4597 9999
100 4435 9999
327 1453 10000
459 4153 10000
279 4572 9999
189 1819 9999
88 97 9999
382 2762 9999
486 4823 10000
35 3088 9999
444 780 10000
342 3709 10000
72 2393 9999
48 4932 10000
322 3380 9999
129 4455 9999
465 4385 9999
424 4292 10000
11 566 10000
190 4448 10000
166 2010 9999
432 3451 10000
138 2622 10000
369 709 10000
307 1054 10000
224 1780 10000
72 3509 10000
70 3581 9999
401 2961 10000
401 1097 9999
56 2159 9999
41 1071 9999
181 1132 9999
483 4964 10000
458 1084 9999
444 4039 9999
470 1694 9999
77 3322 10000
215 3183 10000
410 3974 9999
248 2374 9999
363 2519 9999
499 4472 10000
324 1911 10000
101 1831 9999
186 3712 10000
417 2365 9999
289 1804 9999
332 3676 10000
66 4993 10000
81 3134 10000
283 1421 9999
132 1140 9999
131 2221 9999
479 953 10000
25 2599 9999
156 980 9999
473 1150 9999
2 3599 9999
262 4830 10000
91 327 9999
48 734 10000
451 1808 10000
16 1759 9999
16 3414 10000
13 207 10000
401 3949 10000
324 2009 9999
348 1398 9999
466 4184 10000
192 1533 10000
94 1997 9999
162 4392 9999
124 3706 10000
415 4232 10000
286 1808 10000
27 641 10000
130 483 10000
404 784 10000
357 4561 9999
134 958 9999
225 3282 9999
219 921 10000
496 2758 9999
29 2964 9999
56 895 10000
455 2882 9999
19 816 9999
458 3552 10000
2 3480 10000
33 2640 9999
110 277 10000
418 868 9999
319 3895 10000
177 875 10000
255 644 9999
186 3716 9999
441 2362 9999
12 2692 9999
486 1626 9999
214 4544 9999
93 280 9999
406 3159 10000
262 4525 9999
496 1839 10000
429 4723 9999
119 4824 9999
353 1717 10000
469 4439 9999
293 3417 10000
416 1978 10000
422 2272 9999
422 2892 9999
162 992 9999
317 4019 10000
150 539 10000
24 4848 10000
440 3770 10000
394 1130 9999
6 2833 10000
346 2911 10000
53 4888 9999
80 4886 10000
276 310 10000
347 1537 9999
196 748 10000
417 2624 10000
171 4735 10000
103 1025 10000
106 4619 9999
427 4623 9999
464 1953 9999
174 1314 9999
420 3537 10000
301 4825 10000
435 692 10000
475 1393 9999
472 4527 10000
17 4559 10000
334 3274 10000
127 3514 9999
230 3383 10000
384 3118 10000
494 3505 9999
71 4949 10000
394 4118 9999
277 1333 10000
141 1235 10000
136 4491 10000
251 4719 9999
449 2950 10000
164 3078 10000
130 284 9999
129 2556 9999
483 4102 9999
67 2029 10000
430 1237 9999
84 4308 10000
42 1121 10000
125 2273 10000
490 2343 9999
369 3674 9999
302 4172 10000
327 3730 10000
370 1106 10000
481 4043 10000
208 1877 9999
304 3430 10000
128 3605 9999
254 2141 10000
398 1929 10000
342 1367 10000
36 424 10000
491 1625 10000
23 4554 9999
328 2579 10000
363 4874 9999
403 2075 9999
104 3206 10000
475 4522 9999
18 1198 10000
381 3406 9999
187 4050 9999
397 3407 10000
373 549 10000
50 3594 10000
19 1131 10000
199 504 10000
282 633 9999
376 4409 10000
377 1673 9999
326 4892 10000
493 3394 9999
66 946 10000
33 1982 9999
60 1758 10000
475 1572 10000
469 1930 10000
266 3113 10000
466 2697 10000
262 3458 10000
139 4814 10000
155 4379 9999
190 2334 10000
417 1219 10000
400 513 10000
149 3220 9999
105 4169 10000
310 4211 10000
133 3430 10000
63 2749 10000
160 4792 9999
479 4906 10000
383 3529 10000
446 4799 10000
406 3457 10000
184 3369 9999
338 2119 9999
66 1801 10000
85 1557 9999
52 718 10000
3 4513 9999
453 2830 9999
205 767 10000
286 2067 10000
346 2676 9999
137 171 10000
115 4404 10000
447 3090 9999
268 1623 9999
485 589 10000
400 1825 9999
446 2802 9999
329 1739 9999
22 3655 10000
467 1772 9999
131 2971 9999
459 469 10000
286 4220 9999
146 1173 10000
481 4366 10000
478 3334 9999
67 3508 9999
255 2383 9999
259 3185 9999
74 3129 9999
408 1033 9999
394 3685 9999
216 4562 9999
364 4797 10000
50 4424 9999
141 1165 10000
194 3871 9999
16 4595 10000
275 2289 10000
334 4220 10000
66 2168 9999
317 405 9999
302 1832 9999
173 2191 9999
234 1808 9999
431 2713 9999
223 4224 9999
319 4435 10000
306 3723 10000
485 1143 10000
378 3671 9999
143 1831 9999
405 3878 10000
302 4714 10000
98 4867 9999
388 2719 10000
450 3850 10000
155 491 9999
173 1441 9999
161 1462 9999
219 2711 10000
277 4765 10000
281 1417 10000
462 751 10000
326 4655 9999
496 3722 9999
241 3617 10000
243 1872 10000
472 3112 9999
57 4306 10000
176 2930 10000
21 253 9999
317 2224 9999
401 954 9999
188 443 10000
115 3591 10000
277 1406 10000
312 1177 10000
152 4136 10000
323 2604 9999
7 1119 9999
50 3808 9999
62 1907 9999
229 1662 10000
93 1958 10000
86 1433 9999
333 807 10000
210 2975 10000
353 4182 10000
218 1219 9999
300 1515 10000
288 3420 10000
218 2196 10000
219 3480 10000
364 1705 9999
491 2092 10000
447 3618 10000
480 2030 10000
147 3154 10000
491 3751 10000
390 749 10000
261 604 10000
12 1126 9999
24 1746 9999
35 2430 9999
185 1559 9999
65 2790 9999
475 4047 9999
171 402 9999
497 889 10000
233 341 10000
30 4526 9999
246 913 9999
114 2820 9999
421 4044 10000
133 3084 10000
23 1205 9999
251 3744 10000
463 1786 9999
314 2670 10000
185 1250 10000
442 1412 9999
366 3431 9999
22 2450 9999
66 3233 10000
425 3629 10000
301 1811 10000
496 3855 10000
22 1473 10000
315 1863 10000
194 4605 10000
168 4631 9999
442 2779 9999
201 1481 10000
29 3064 10000
318 3648 10000
428 3042 9999
423 2842 9999
219 2632 10000
297 1684 10000
400 2887 10000
172 182 10000
252 604 10000
110 770 9999
79 4281 9999
353 524 9999
161 2960 10000
366 2155 10000
288 4466 10000
62 182 10000
334 842 10000
52 3533 10000
447 4063 10000
425 939 10000
281 2660 10000
437 2073 9999
197 3999 10000
311 3708 10000
316 2732 10000
459 481 9999
132 2340 10000
465 1423 9999
42 4380 9999
471 3481 10000
176 4522 10000
386 725 10000
430 1187 9999
323 4041 10000
54 2015 9999
407 4856 10000
438 638 10000
490 2835 9999
210 4421 9999
424 3779 10000
217 1481 10000
79 4013 10000
342 2390 10000
374 2134 9999
334 3318 9999
257 2712 10000
83 4982 9999
394 4620 9999
355 2573 9999
206 759 9999
402 4525 10000
343 2480 9999
241 1880 9999
438 4148 9999
196 3124 10000
294 2012 10000
45 4348 9999
420 4728 9999
34 3795 10000
100 1182 9999
49 4652 9999
59 4918 9999
48 4331 9999
301 4055 10000
105 671 10000
174 4586 9999
296 3718 10000
399 1690 10000
302 1946 10000
314 2967 10000
470 1699 10000
126 3148 9999
235 2798 10000
417 768 9999
146 3852 10000
239 2674 9999
80 2687 9999
22 1722 10000
307 4039 10000
389 1414 10000
400 4349 10000
427 4887 10000
151 1693 9999
315 2975 10000
273 2764 10000
146 3222 9999
398 3125 9999
297 871 9999
440 3223 9999
244 4483 10000
222 1954 9999
135 3750 10000
197 1483 10000
289 4412 10000
297 785 10000
423 3620 9999
303 3005 10000
231 3420 9999
176 520 9999
179 3248 9999
94 4200 10000
160 1575 9999
445 1896 9999
186 4485 9999
380 1538 10000
331 4532 9999
51 3332 10000
405 3655 10000
367 2764 9999
336 2963 10000
383 2559 9999
485 3772 10000
136 3791 9999
119 2488 9999
323 1568 10000
381 813 9999
222 4781 9999
221 1091 9999
321 2253 10000
331 1096 9999
271 1000 9999
436 4000 10000
325 997 10000
456 1652 10000
268 396 10000
500 695 9999
160 922 10000
170 3637 9999
194 4866 10000
404 4255 9999
388 4072 9999
92 331 9999
423 1380 10000
217 4302 10000
407 2974 9999
58 4581 9999
41 4843 9999
348 2555 10000
301 1487 10000
23 103 9999
70 3839 9999
325 3829 10000
224 4094 9999
298 3066 10000
423 1623 10000
38 1937 9999
20 2297 10000
379 904 9999
329 978 10000
312 2958 9999
377 3678 9999
458 968 10000
137 862 10000
208 3367 9999
198 2296 9999
283 4154 10000
392 947 9999
465 4671 10000
481 3270 9999
468 3017 10000
155 4022 10000
174 3042 9999
132 2603 9999
185 3143 9999
4 4232 9999
207 687 10000
440 3643 9999
242 4943 9999
482 537 10000
62 4742 10000
122 2619 9999
53 2234 10000
181 3117 10000
84 2176 10000
322 3827 9999
208 1597 10000
452 3263 10000
117 425 10000
412 4847 9999
64 4638 9999
230 3461 10000
46 118 10000
372 4337 9999
200 1301 9999
477 1891 10000
32 1266 9999
128 791 10000
185 2088 9999
167 4524 10000
179 1633 9999
369 693 10000
367 4737 9999
193 2710 9999
75 3002 10000
485 2851 10000
136 4607 10000
402 1770 9999
59 1320 10000
434 4287 9999
3 4691 9999
255 4683 9999
326 2910 10000
470 1468 10000
338 2999 9999
371 1937 9999
296 1418 10000
90 692 10000
437 2068 10000
371 4266 10000
81 4859 9999
430 3115 10000
151 1002 10000
415 3528 9999
444 1185 9999
198 685 9999
431 2768 9999
103 839 9999
219 1040 9999
141 4060 9999
299 4441 10000
128 1620 10000
140 3849 10000
64 2258 9999
5 3850 9999
16 202 10000
53 4922 10000
388 2488 10000
29 3459 10000
410 4686 9999
485 3910 10000
284 4749 10000
4 1059 10000
7 1644 10000
431 606 10000
64 3473 9999
227 3666 9999
414 1138 9999
250 840 9999
161 2332 9999
367 4623 10000
337 890 10000
341 1797 10000
435 842 9999
208 3074 9999
80 3525 10000
387 2858 10000
418 1975 9999
469 1029 10000
51 2544 10000
322 3513 9999
134 2136 9999
439 2540 9999
334 353 10000
52 4862 10000
31 2149 9999
272 4421 9999
165 3592 9999
496 2714 9999
490 3627 10000
344 2523 10000
443 3649 9999
406 3459 9999
31 3587 10000
275 376 10000
100 3441 9999
112 127 10000
108 871 9999
416 4375 9999
318 721 10000
116 4059 10000
197 804 9999
223 2566 10000
375 3889 10000
343 3007 9999
426 3560 9999
250 761 10000
465 3654 9999
122 1003 9999
289 3838 9999
325 584 9999
479 791 9999
345 1809 9999
282 3261 10000
259 4260 10000
126 1399 9999
15 4032 10000
460 2448 9999
475 671 10000
376 381 9999
38 969 10000
436 1621 9999
252 2782 9999
8 1591 10000
262 726 10000
165 2105 10000
320 2084 10000
269 1610 9999
393 3620 10000
457 3107 9999
233 3781 10000
214 1160 9999
61 3968 10000
142 3499 9999
453 812 9999
411 1204 9999
47 4891 9999
95 3012 10000
375 1921 9999
147 3202 9999
369 4822 9999
260 2213 10000
153 3585 9999
443 2362 10000
342 3064 10000
444 2880 10000
38 293 9999
498 1846 10000
71 4716 9999
155 4925 10000
21 1321 10000
88 4374 9999
218 281 9999
31 4887 9999
443 4593 10000
77 438 9999
22 598 9999
216 2248 10000
329 3892 10000
19 1094 9999
363 4175 10000
181 1438 9999
52 4598 10000
134 2970 10000
462 4841 10000
49 2909 9999
489 2136 9999
204 607 9999
429 2705 10000
100 1593 10000
174 2406 10000
219 3448 9999
322 4497 9999
406 974 10000
429 4987 9999
337 2916 10000
36 3434 10000
108 2633 9999
332 3754 10000
442 2435 9999
105 951 9999
476 808 10000
410 815 10000
391 2152 10000
101 1435 10000
166 4547 9999
356 1233 10000
67 3814 9999
85 3396 10000
96 433 9999
471 3335 10000
110 584 10000
190 3586 9999
286 869 9999
17 3960 10000
97 4152 10000
22 4724 9999
381 2505 9999
432 929 9999
457 4768 9999
135 2677 9999
467 2932 9999
459 3533 10000
49 1478 10000
257 4850 9999
51 2234 9999
188 394 9999
329 498 9999
245 2639 10000
89 1487 10000
94 4520 10000
450 490 9999
396 734 9999
11 1136 9999
376 1680 10000
303 2048 9999
11 696 10000
490 563 9999
13 1789 10000
278 2201 9999
105 1480 10000
105 4250 10000
426 2079 10000
500 1667 9999
333 2536 9999
86 1910 10000
330 4319 9999
84 605 10000
44 4601 10000
136 283 9999
478 4638 9999
215 894 9999
82 2180 10000
86 470 9999
260 4439 10000
437 522 10000
50 4300 9999
134 4553 9999
328 4418 9999
317 3431 10000
131 1565 9999
429 4197 10000
269 3207 10000
217 4119 10000
257 3794 10000
25 1174 10000
372 4178 10000
86 1906 9999
87 4425 9999
296 1154 9999
88 3137 10000
155 1909 10000
58 3654 9999
256 3269 9999
364 2362 10000
233 2845 10000
227 4877 10000
478 4309 10000
30 4517 10000
213 697 9999
179 428 9999
306 601 10000
381 2380 9999
415 2668 10000
313 4506 9999
437 1301 9999
485 3103 9999
252 2431 10000
309 3435 9999
364 1457 10000
447 797 9999
466 4438 10000
203 4787 9999
336 4319 10000
159 2090 10000
33 956 10000
101 4839 10000
59 1601 9999
345 2159 10000
87 4867 10000
393 1727 9999
309 1599 10000
31 4639 10000
388 808 9999
358 2408 9999
358 2941 9999
483 2228 9999
264 2646 10000
236 4181 9999
139 3346 10000
496 1360 9999
177 3915 10000
432 1761 10000
305 3335 10000
210 4475 10000
376 751 10000
470 4169 10000
202 3394 10000
354 728 9999
440 1943 10000
461 2530 10000
208 1908 9999
17 559 10000
178 2854 10000
272 3674 10000
78 4417 9999
262 315 10000
166 1957 10000
11 203 9999
88 2631 10000
135 1473 10000
206 4278 9999
396 2548 10000
10 4526 10000
343 788 10000
198 1092 10000
30 773 9999
197 3128 9999
455 630 9999
389 1849 9999
37 232 9999
168 4616 9999
327 799 10000
277 897 10000
115 4712 9999
497 2747 9999
419 4763 9999
102 4568 10000
130 4046 10000
334 2028 10000
47 2869 9999
92 4163 10000
40 2795 10000
352 447 10000
223 3823 9999
100 4306 10000
186 3420 9999
297 589 9999
310 3234 9999
96 538 9999
318 2658 10000
312 858 10000
201 2281 10000
299 1155 9999
367 1468 9999
253 680 10000
238 4468 9999
84 3856 10000
200 3848 9999
53 1430 10000
44 2495 10000
178 2268 9999
287 4571 10000
13 894 10000
470 2086 10000
120 2862 9999
301 3935 10000
72 3349 10000
70 469 10000
390 787 10000
234 4585 10000
350 3632 10000
492 3278 10000
387 1632 9999
371 1817 9999
251 2909 10000
376 4934 9999
113 4957 9999
460 3137 9999
447 2912 10000
498 4015 9999
429 2140 9999
19 2982 9999
203 1103 10000
399 1438 10000
305 3201 10000
97 1393 9999
415 3978 9999
379 1210 10000
316 3560 10000
469 1511 10000
71 230 9999
467 3416 10000
48 2774 10000
358 3205 9999
375 660 10000
406 3797 10000
239 2035 10000
250 2584 9999
153 1474 9999
74 1414 10000
143 1044 9999
500 4673 9999
270 4621 9999
262 530 9999
213 650 10000
276 2867 9999
235 3931 10000
52 4504 10000
343 2411 10000
423 2416 10000
19 4340 10000
30 34 10000
141 4711 10000
367 3782 9999
47 3647 9999
96 2362 9999
346 1431 10000
414 3631 10000
251 4999 10000
285 2819 9999
499 529 10000
142 252 9999
129 4525 9999
399 1019 9999
231 1849 9999
427 1994 9999
101 532 10000
366 1087 9999
187 2850 10000
417 1425 9999
346 1194 9999
321 4133 10000
74 4429 9999
201 3530 10000
56 4199 10000
437 4280 9999
250 1245 9999
49 2924 10000
60 488 9999
134 4254 10000
167 313 9999
156 3850 10000
113 4281 9999
382 4231 10000
474 3856 9999
246 2238 10000
217 3520 9999
155 1900 9999
6 1502 9999
403 2492 9999
139 4986 10000
95 417 9999
203 990 9999
47 2487 9999
8 1500 10000
191 2587 9999
409 4585 9999
344 854 10000
260 2552 9999
363 765 10000
374 2043 10000
435 4786 10000
443 2437 9999
319 2774 10000
370 2626 10000
434 3571 9999
161 3014 10000
398 2977 9999
89 3313 10000
254 4855 10000
439 4465 10000
470 4412 9999
94 954 9999
389 3898 9999
340 408 10000
159 644 10000
219 4945 10000
477 2230 10000
177 1607 9999
19 2278 10000
159 246 9999
25 3519 9999
276 622 9999
71 4330 10000
353 3483 10000
344 3842 10000
316 798 9999
117 434 10000
491 1107 9999
59 761 10000
282 765 10000
252 4851 9999
442 2165 9999
457 4335 9999
291 2019 10000
37 203 9999
310 3758 9999
134 4049 10000
171 1735 9999
226 2508 10000
436 1933 10000
7 3476 10000
447 2241 10000
207 3628 10000
98 4044 9999
136 414 10000
332 3003 9999
2 335 10000
380 1217 10000
362 3852 9999
450 764 9999
46 1400 9999
271 1638 9999
337 4560 10000
421 1823 10000
286 4425 10000
6 2212 10000
455 4511 10000
223 3146 9999
304 3375 10000
418 1513 10000
50 1738 10000
453 2266 10000
444 4504 10000
166 3448 9999
304 4924 9999
456 2625 9999
188 4885 9999
284 2151 10000
260 663 9999
21 213 10000
194 4242 9999
38 1562 10000
289 2292 10000
347 2268 10000
255 675 10000
68 4989 9999
250 4799 10000
103 2709 10000
424 4507 9999
71 4765 9999
5 353 10000
107 2882 10000
340 4795 10000
172 2538 9999
235 3291 9999
316 4259 9999
6 24 9999
416 4124 10000
294 2523 10000
357 2173 9999
416 732 9999
329 1934 10000
336 1438 9999
441 2150 10000
472 1174 10000
195 766 9999
351 755 10000
49 4470 9999
385 3417 9999
3 1562 10000
174 2742 10000
274 2387 10000
121 4786 10000
253 485 9999
364 2632 10000
164 4912 10000
357 2420 9999
359 2723 9999
190 2048 10000
164 3448 10000
253 3867 10000
34 2867 9999
81 4237 9999
192 223 9999
360 4306 10000
389 1032 10000
415 1898 10000
271 3567 10000
10 1790 9999
476 1987 9999
124 1080 9999
89 1660 9999
263 1453 9999
372 1242 9999
222 2894 9999
346 3369 9999
379 3791 9999
416 1107 9999
172 1932 9999
32 2798 10000
187 1477 10000
166 2933 9999
127 2615 10000
236 4319 9999
157 244 10000
485 545 9999
199 1351 9999
62 3126 9999
143 2210 10000
285 3555 10000
205 3527 9999
264 822 10000
277 2511 9999
182 3620 9999
51 4372 9999
346 4762 10000
52 2945 9999
268 3567 10000
295 3308 10000
442 4917 10000
220 3256 10000
322 504 10000
350 4460 9999
452 1773 9999
299 3556 10000
204 4454 9999
124 872 10000
325 2229 10000
129 3847 10000
421 4344 9999
81 2793 9999
339 3767 10000
169 2719 9999
383 406 10000
77 4613 10000
379 1994 10000
405 875 9999
17 1925 9999
137 1664 9999
126 1079 9999
40 107 10000
247 1522 9999
145 3516 10000
369 1917 9999
266 1518 9999
200 332 9999
239 3299 10000
470 1122 10000
135 2882 10000
232 497 9999
433 4222 9999
438 1700 10000
120 714 9999
348 2275 9999
150 3755 9999
210 2615 9999
281 3992 9999
342 4457 9999
183 249 9999
342 2118 10000
39 3229 9999
298 3827 9999
3 1120 9999
362 4459 9999
271 1987 9999
59 4549 9999
179 3349 9999
221 3288 10000
486 4765 9999
315 606 10000
275 1923 10000
136 1756 10000
146 409 9999
459 2972 10000
244 3696 9999
30 869 10000
69 4806 10000
334 1607 9999
475 4190 9999
408 1766 9999
82 848 10000
293 4424 9999
245 1129 9999
190 669 9999
230 4294 9999
308 3353 10000
5 793 10000
326 3093 10000
350 2307 9999
446 3980 10000
189 931 10000
484 3957 9999
244 4962 9999
388 4727 9999
201 2680 9999
439 862 9999
90 802 9999
16 3169 9999
266 4871 9999
374 4929 10000
103 1709 10000
114 2583 9999
236 1326 10000
252 1984 10000
378 4757 10000
489 529 10000
281 1375 10000
342 2482 10000
103 1492 10000
284 1151 9999
213 2669 9999
285 3534 9999
448 3599 9999
460 1374 10000
7 1203 10000
138 4655 9999
82 2640 10000
412 2511 9999
62 2782 9999
374 2330 9999
485 1771 9999
458 1326 9999
315 502 10000
318 1610 9999
488 4180 9999
295 2419 9999
413 2204 9999
263 996 10000
323 4528 9999
69 2742 10000
100 1400 10000
137 906 10000
85 2503 9999
116 2527 9999
199 2835 10000
111 1741 9999
311 2131 9999
306 861 9999
115 4484 10000
153 2382 9999
268 2856 10000
186 2560 10000
354 859 10000
150 401 10000
470 4272 10000
291 704 9999
317 3194 9999
388 1402 10000
134 1991 9999
328 4306 9999
31 3743 10000
363 724 9999
172 1324 9999
387 4319 9999
79 4910 9999
279 2968 10000
235 3317 10000
239 1219 9999
184 2601 10000
240 1366 9999
266 361 10000
358 2727 9999
104 610 10000
181 1809 10000
93 330 10000
81 1238 10000
55 490 9999
120 1129 9999
294 1635 9999
500 4100 10000
304 4435 9999
109 3547 9999
486 948 10000
285 2179 9999
320 2802 10000
437 4165 9999
404 2348 10000
255 2046 10000
328 790 10000
201 2992 9999
22 3074 9999
324 759 9999
479 4882 9999
162 3468 9999
438 4820 9999
208 1314 9999
78 215 10000
444 1685 10000
375 3964 9999
444 3450 10000
376 1425 10000
268 3236 9999
455 3751 9999
242 3476 10000
344 1979 10000
319 4259 9999
98 4115 9999
57 1605 9999
272 3769 10000
429 523 9999
72 4143 10000
373 3024 10000
447 2614 9999
178 1013 10000
111 4700 9999
34 756 9999
254 1642 9999
446 600 10000
356 922 9999
289 1950 10000
141 2242 9999
227 529 9999
231 3318 10000
13 4647 10000
161 973 10000
176 2903 10000
82 4955 10000
329 3298 9999
476 1778 9999
383 1771 10000
145 2562 9999
412 2021 10000
42 4418 9999
135 4526 9999
304 2808 10000
128 1127 9999
105 439 10000
413 4329 9999
5 1843 9999
423 1690 9999
236 1371 10000
15 3622 9999
327 1316 9999
394 3615 10000
446 499 9999
485 519 10000
71 4376 9999
295 2131 10000
398 713 9999
258 3318 10000
455 635 10000
119 2065 9999
167 4351 9999
245 636 9999
134 2837 10000
265 2725 9999
43 3795 9999
464 4360 9999
228 4902 9999
375 669 10000
42 4184 9999
335 970 9999
273 837 9999
13 3937 9999
399 3665 9999
14 1780 9999
150 3902 10000
32 1931 9999
429 2229 9999
122 973 10000
197 753 9999
395 4812 9999
97 851 10000
206 1215 9999
143 1272 10000
302 1500 10000
96 4137 10000
364 3279 10000
275 288 9999
138 4411 10000
181 4223 9999
68 2807 9999
456 4688 9999
397 963 9999
212 1093 10000
120 1424 10000
264 3464 9999
495 4182 9999
63 4609 10000
206 4254 9999
211 546 9999
136 1489 9999
53 997 10000
77 1780 9999
183 4756 9999
420 4746 10000
288 2472 10000
334 620 10000
285 3882 9999
496 1947 10000
429 2843 9999
326 1982 9999
498 4443 9999
318 3775 9999
406 3996 9999
100 1357 9999
202 627 10000
79 4212 10000
387 3788 9999
85 1492 10000
284 3592 10000
440 3488 10000
7 2624 9999
444 2651 10000
208 2711 10000
46 360 9999
377 4678 9999
493 2803 9999
223 4828 9999
449 1654 10000
175 1638 10000
53 404 9999
483 2728 9999
202 1775 10000
293 3458 10000
417 4300 10000
54 3268 10000
456 2761 10000
75 1890 10000
28 76 9999
166 3349 9999
358 2415 9999
101 4789 10000
92 2233 9999
231 4061 9999
29 4221 9999
352 1342 9999
381 2407 9999
43 45 9999
164 1812 9999
274 3079 9999
251 970 9999
268 2551 9999
437 1373 9999
64 2438 10000
486 1726 9999
356 3547 10000
114 3213 9999
10 1865 10000
431 2120 9999
152 334 10000
402 4482 9999
383 2094 10000
386 1698 9999
267 1409 10000
268 1192 9999
381 1035 10000
158 1551 10000
26 1137 9999
128 1353 10000
118 2778 9999
84 1054 10000
258 3709 10000
3 1221 10000
286 383 10000
333 3537 10000
391 1871 10000
82 4618 10000
415 3755 9999
478 4962 9999
332 2763 9999
5 4993 10000
90 2942 9999
46 4435 9999
65 2657 10000
452 3903 9999
392 1332 10000
220 3654 10000
79 507 9999
406 2578 9999
146 3613 10000
333 3152 9999
372 563 10000
195 3467 9999
419 4438 10000
140 3934 10000
174 1480 10000
64 2922 9999
245 1692 9999
390 4363 10000
484 2588 10000
193 3179 9999
497 4623 10000
446 3791 9999
357 3632 9999
468 483 10000
34 4844 10000
346 1964 9999
213 2076 9999
343 2682 9999
207 1139 9999
258 2503 10000
181 4052 9999
345 4332 10000
297 3717 10000
57 660 9999
130 2583 9999
294 2694 10000
65 4219 10000
86 3095 10000
210 707 10000
3 3935 9999
382 4290 9999
94 2352 9999
129 4312 9999
338 4598 10000
94 2997 9999
116 3847 10000
379 2316 10000
369 4514 9999
21 2003 9999
449 4608 10000
25 2010 9999
46 4777 9999
68 408 10000
360 1152 9999
267 3790 10000
432 3059 10000
72 4961 9999
335 1438 9999
457 825 9999
215 3051 10000
322 571 9999
369 2111 9999
444 4105 10000
485 3644 10000
460 4314 9999
340 4841 10000
499 4141 9999
450 3508 9999
444 2950 10000
306 629 10000
112 2275 9999
66 274 9999
403 3069 9999
389 3851 10000
2 4133 10000
309 2205 9999
253 4435 9999
184 2152 9999
217 3907 9999
360 3975 10000
481 2490 10000
323 2250 10000
27 3521 10000
407 1271 10000
459 3267 9999
426 2456 9999
479 2644 10000
314 2196 10000
322 3761 9999
422 1866 10000
218 3962 9999
349 2116 10000
129 2601 9999
278 4052 9999
330 860 9999
354 3986 9999
484 1167 10000
165 541 9999
463 1985 10000
455 3297 10000
449 2886 10000
271 1224 10000
277 1924 10000
297 2599 9999
228 2983 10000
390 1478 10000
497 3514 9999
416 1489 10000
151 4081 9999
53 2393 10000
29 4287 10000
29 1546 9999
146 4041 10000
43 3586 9999
52 1323 9999
135 3051 9999
330 908 9999
2 77 9999
179 4551 10000
298 1227 9999
417 730 10000
17 4167 10000
198 763 9999
298 3502 9999
463 2555 9999
159 2828 9999
409 4629 9999
129 4330 9999
211 3786 10000
97 3857 9999
60 4554 10000
127 3284 9999
286 3764 9999
415 4928 9999
63 4450 9999
117 4170 9999
129 3292 9999
386 2664 10000
170 736 9999
130 4111 10000
207 4651 9999
222 2124 10000
494 2191 9999
180 4887 10000
109 2638 10000
167 1353 10000
196 889 9999
231 4710 9999
320 3432 10000
2 3565 9999
24 3272 9999
480 4650 9999
279 2720 10000
256 1903 10000
303 2884 9999
134 3476 10000
295 2711 9999
428 4401 9999
262 854 10000
299 2014 9999
325 2875 10000
272 3167 10000
377 4265 10000
489 4924 9999
342 3358 9999
229 2472 10000
29 3672 10000
485 1315 9999
382 2377 10000
273 2741 9999
247 1566 10000
118 772 9999
384 3904 10000
281 2860 10000
196 2977 9999
241 4813 9999
362 4681 10000
372 934 9999
431 2999 10000
71 904 10000
116 1648 9999
391 1403 10000
16 4086 10000
220 3931 10000
12 4564 9999
71 3486 9999
183 3474 10000
460 4611 10000
336 3130 9999
176 2858 9999
119 4044 10000
110 1647 9999
339 2359 10000
493 3155 10000
18 2306 9999
223 4864 9999
354 4431 10000
402 532 9999
112 999 9999
312 887 9999
294 4847 10000
418 3339 9999
146 1069 9999
89 2177 9999
2 1866 9999
242 4092 10000
186 3965 10000
125 2375 10000
161 2946 9999
112 4773 9999
473 3077 9999
334 2049 10000
438 882 10000
45 1343 9999
495 3940 9999
6 504 9999
161 2633 10000
28 1314 10000
211 2592 9999
275 855 10000
26 4489 10000
108 717 9999
479 3004 10000
362 1570 9999
52 319 9999
360 4845 10000
221 587 9999
157 4053 10000
314 1104 10000
320 3512 9999
345 1385 9999
274 4422 9999
213 3253 9999
84 1568 9999
451 1926 9999
292 2042 10000
162 4486 10000
180 3159 10000
223 3477 10000
282 1067 10000
400 2408 9999
56 3556 10000
207 2547 10000
119 2525 9999
489 4433 9999
220 4321 10000
429 4590 9999
351 846 9999
251 1419 10000
302 1867 10000
54 2223 10000
227 4833 10000
316 1527 10000
148 877 9999
245 4445 10000
365 1235 10000
336 2965 9999
345 3217 10000
137 3564 10000
367 4989 9999
497 3497 10000
259 3439 9999
53 4939 9999
13 1095 9999
30 4470 9999
152 1459 10000
385 2323 10000
92 201 9999
111 3585 10000
435 2982 9999
75 581 9999
76 1527 9999
487 2088 10000
222 1326 9999
114 2901 9999
494 4773 10000
264 2403 9999
386 4792 9999
185 3601 10000
57 4405 9999
284 3045 9999
444 3665 9999
227 1766 10000
57 1716 10000
258 715 9999
359 1321 9999
87 1335 9999
297 649 9999
449 4588 9999
154 2684 10000
419 1294 10000
16 3673 9999
226 2476 10000
430 1301 9999
300 4355 10000
404 1302 10000
462 2869 9999
140 4620 9999
164 2181 9999
212 2757 10000
124 4004 10000
259 3536 9999
388 3283 9999
301 414 9999
496 2348 9999
468 4709 9999
137 4278 9999
99 2831 9999
364 3035 9999
191 2450 9999
351 983 10000
140 1683 9999
90 3400 10000
412 604 9999
166 1302 9999
364 3458 10000
217 4161 10000
25 2922 10000
483 3043 10000
408 3533 9999
144 4246 10000
86 882 10000
483 3978 10000
266 4763 9999
217 836 10000
432 4162 10000
446 3054 9999
20 3581 9999
440 2401 9999
260 3632 9999
217 3018 10000
467 4183 9999
158 559 9999
319 4168 9999
340 2031 9999
156 2642 9999
67 1487 9999
139 4701 10000
272 1154 9999
219 495 10000
316 3650 9999
336 3871 9999
317 907 10000
12 4918 9999
351 408 9999
466 797 9999
77 2550 9999
200 434 10000
36 797 10000
65 236 9999
493 3332 10000
52 3589 9999
39 4702 10000
96 2496 9999
431 1509 10000
328 4227 9999
117 2588 9999
468 2351 10000
119 4666 10000
384 2267 10000
207 2876 10000
225 1354 10000
196 4723 10000
45 4328 10000
480 1957 10000
145 1724 9999
422 1943 10000
130 4950 9999
298 4492 10000
454 4623 10000
278 882 9999
293 4407 10000
111 1897 9999
308 1939 10000
170 2810 10000
408 4140 10000
255 3375 9999
37 3663 10000
405 651 9999
140 1910 10000
477 1097 9999
243 2374 9999
284 555 9999
456 2780 10000
266 4251 9999
170 3832 10000
317 4652 10000
38 2518 9999
69 2459 9999
356 3782 9999
26 4937 10000
137 2273 10000
436 1979 10000
388 1519 9999
396 3204 10000
458 877 10000
469 1347 9999
450 2030 10000
491 2057 9999
434 1185 10000
447 639 10000
440 661 10000
25 2581 10000
400 1586 9999
240 4297 10000
400 2076 9999
96 3410 10000
406 4040 10000
480 2962 9999
17 3006 9999
114 4268 9999
111 748 9999
29 1778 9999
41 423 10000
188 887 9999
311 4571 9999
295 1088 9999
496 2634 9999
101 1708 10000
335 3191 10000
403 3383 10000
282 801 10000
210 4884 10000
119 2238 9999
346 2636 9999
385 2252 10000
474 863 9999
475 3691 9999
299 1207 10000
11 1849 10000
395 3904 10000
444 4682 9999
194 4100 9999
235 1588 10000
19 1641 9999
448 1711 9999
312 435 9999
386 3075 10000
405 4790 9999
215 4049 9999
349 2038 10000
296 582 9999
262 3122 9999
6 682 9999
311 2628 10000
264 2068 9999
239 4619 10000
341 4224 10000
176 2027 9999
106 741 10000
273 2442 10000
484 2147 10000
71 1318 10000
4 2371 10000
177 2433 10000
226 4149 10000
373 586 9999
182 1379 10000
222 4619 9999
302 4108 9999
404 1319 9999
353 4215 10000
404 2121 9999
119 1367 10000
181 3811 9999
490 2777 10000
264 2125 10000
414 3516 10000
34 1520 9999
342 3811 10000
147 1826 9999
280 369 9999
344 4502 9999
423 1417 10000
236 1766 10000
28 544 9999
20 1433 9999
304 3165 9999
201 4569 10000
216 4259 10000
159 1565 10000
93 2718 10000
371 2111 10000
249 1711 9999
158 3996 10000
405 1451 9999
4 1697 10000
4 1770 10000
210 3321 10000
269 4280 10000
408 4928 9999
226 4051 9999
24 3902 9999
471 823 10000
326 729 9999
423 4608 9999
428 4427 10000
185 4256 9999
63 3472 9999
19 2488 10000
302 2021 9999
215 2422 9999
315 3444 9999
109 574 10000
307 1465 9999
347 3557 10000
128 4369 9999
241 296 10000
213 475 9999
69 4109 9999
254 4201 10000
464 2537 9999
8 4391 10000
392 873 9999
120 796 10000
340 4727 9999
233 2357 10000
56 3608 9999
493 3584 10000
89 384 9999
330 1035 9999
70 717 10000
329 2801 9999
309 872 9999
382 1897 10000
413 3606 9999
200 4780 10000
28 1495 10000
282 720 10000
405 3180 9999
242 4372 9999
302 629 10000
236 901 9999
56 657 10000
432 2169 10000
497 1968 10000
479 2260 10000
150 4460 9999
177 3964 9999
143 3349 9999
156 166 9999
420 1532 9999
382 2009 9999
260 1148 9999
216 4414 9999
432 591 10000
232 344 10000
215 1939 10000
456 2668 9999
99 3241 9999
303 2290 10000
453 2593 10000
474 826 9999
25 4160 9999
361 822 10000
130 1446 9999
259 3089 10000
490 908 9999
124 1896 9999
428 1795 9999
329 1030 10000
183 3865 10000
232 383 10000
359 3915 10000
475 1360 9999
237 1157 9999
270 434 9999
58 2172 9999
163 2779 10000
13 2099 10000
424 1693 9999
305 4264 10000
253 2688 9999
59 4104 9999
157 3383 9999
451 2082 10000
57 210 10000
484 1547 9999
368 1102 10000
72 314 10000
470 1721 9999
311 861 10000
263 1405 9999
324 1752 10000
63 1636 9999
173 4208 10000
76 3116 9999
164 3810 10000
316 2566 10000
489 1360 9999
54 1840 10000
180 4387 10000
49 2454 9999
191 3602 10000
15 3934 10000
473 823 10000
443 4778 10000
498 1599 9999
327 1651 9999
42 1716 10000
472 1464 10000
298 3218 9999
212 1459 10000
393 1495 10000
294 612 9999
209 2794 10000
243 2245 10000
76 4902 9999
248 3905 10000
378 3425 10000
292 3175 9999
172 3841 10000
252 4903 9999
466 3726 9999
347 1284 10000
245 1744 9999
118 140 10000
350 3035 9999
379 501 10000
456 2908 9999
140 1886 9999
52 4401 9999
268 1606 10000
163 4240 9999
271 1958 10000
396 884 9999
194 2838 9999
380 1529 10000
370 4251 9999
159 1278 10000
13 1439 10000
454 4276 10000
308 4997 9999
398 3208 9999
259 3316 10000
22 1578 9999
449 2498 9999
241 3955 9999
435 1500 9999
244 4178 9999
442 2587 10000
487 2562 9999
419 2048 9999
8 1498 9999
389 1903 9999
421 3988 10000
360 3748 9999
83 4505 9999
465 4253 10000
204 4036 10000
128 2268 9999
108 2125 10000
111 2250 9999
11 2603 9999
310 3691 10000
65 1841 9999
6 3514 9999
22 2549 9999
36 1397 9999
473 3840 9999
281 4372 9999
100 459 10000
321 3274 10000
445 4003 9999
425 4765 9999
396 3127 10000
57 4125 9999
176 3263 9999
241 3047 9999
217 1277 10000
49 4814 10000
353 916 10000
463 1039 10000
101 1474 9999
357 1364 9999
20 21 10000
163 350 9999
60 1313 10000
91 2746 10000
82 3738 9999
381 1812 9999
361 2832 10000
253 1617 9999
218 1663 10000
163 652 9999
89 4746 10000
368 2918 9999
489 3497 9999
46 4035 9999
462 2759 9999
57 207 9999
323 4003 9999
28 182 10000
49 2902 9999
36 3232 9999
175 1993 9999
87 3207 9999
110 3326 9999
297 1570 10000
465 2894 10000
224 3025 10000
166 374 9999
75 2422 9999
193 4390 10000
127 1173 9999
357 1523 9999
261 2085 10000
374 2295 10000
315 3749 10000
401 1312 9999
91 1478 10000
375 3972 10000
112 2540 10000
261 3306 9999
291 300 9999
239 620 10000
157 4081 10000
110 3775 9999
148 1403 9999
461 1223 9999
364 4067 10000
148 2432 10000
294 4817 10000
216 1787 10000
258 3952 10000
358 2946 10000
494 3038 10000
462 1639 10000
387 4544 10000
251 4094 10000
365 1909 9999
15 296 9999
35 4159 10000
124 3292 10000
298 2441 9999
442 1611 9999
19 3350 10000
31 3040 10000
359 3031 10000
150 3028 10000
494 4756 10000
461 3331 10000
374 734 9999
35 4869 9999
188 4566 9999
473 1479 9999
245 921 9999
146 1345 9999
350 2512 10000
238 2810 9999
112 1408 9999
457 1947 10000
158 4372 10000
58 4159 10000
44 3325 10000
318 4604 9999
454 2452 10000
326 1821 9999
311 3888 9999
473 4487 10000
428 1953 10000
176 1824 9999
492 1335 10000
267 2184 9999
198 2853 10000
7 3064 9999
80 1668 9999
251 2379 10000
273 2275 9999
243 2801 10000
290 4681 10000
155 4905 9999
233 3760 10000
49 4629 9999
241 2628 9999
499 3948 10000
93 4587 10000
409 3846 9999
142 4897 9999
2 1189 10000
51 4230 9999
20 4665 9999
454 4866 10000
330 3028 10000
174 891 10000
361 3788 9999
263 3370 9999
127 315 9999
19 2142 10000
103 107 9999
70 3299 10000
202 4530 10000
489 4929 10000
92 2532 9999
218 1481 10000
188 1258 10000
228 3961 9999
144 2476 9999
23 2919 10000
348 530 10000
248 4008 10000
48 1135 9999
216 3783 9999
263 2704 10000
239 2217 10000
78 207 9999
300 960 10000
35 1427 9999
305 2202 10000
486 3126 10000
242 436 9999
444 1761 9999
110 4179 9999
420 3717 9999
455 1434 9999
481 3086 9999
454 1937 9999
470 3410 9999
24 3760 10000
148 3898 9999
135 4668 10000
79 1483 9999
78 1165 10000
404 3441 9999
468 2555 9999
279 1322 9999
449 1000 10000
202 2900 9999
99 2156 10000
101 2621 9999
79 2354 9999
277 4998 9999
86 200 9999
489 3864 10000
95 1136 9999
1 4047 10000
495 1301 9999
234 3996 10000
11 777 9999
337 2634 9999
419 4681 9999
45 3488 9999
220 2712 10000
465 4334 10000
328 4240 10000
365 3925 10000
272 449 10000
104 3671 9999
315 3009 10000
446 2303 10000
49 155 9999
207 937 10000
31 3920 9999
360 1743 9999
333 4660 9999
408 1374 9999
101 477 9999
298 1305 10000
15 2871 9999
188 3378 9999
209 1158 10000
318 3791 9999
23 4986 9999
456 2019 10000
365 1432 10000
475 2499 9999
39 2120 10000
69 3230 10000
302 3861 10000
216 3914 10000
305 1485 9999
177 1032 9999
109 3806 9999
430 2431 9999
477 1964 10000
407 436 9999
69 1641 9999
317 1507 9999
110 2925 10000
70 3282 10000
371 1427 10000
266 2061 10000
117 4600 9999
105 3560 10000
372 2720 9999
372 3869 10000
186 2790 9999
392 2603 9999
475 3635 10000
239 1222 9999
274 2228 9999
65 4682 9999
19 1474 10000
331 937 9999
179 2560 9999
449 4662 10000
158 3240 10000
290 3078 10000
408 795 10000
401 1181 10000
169 4904 10000
482 836 10000
199 4773 10000
124 2723 10000
425 1068 10000
38 2205 10000
173 883 9999
346 2334 10000
348 3717 9999
292 2360 9999
342 4851 9999
53 1000 10000
2 3202 10000
83 1749 9999
493 3239 10000
197 3644 9999
368 896 10000
305 1220 9999
38 2429 9999
92 2609 9999
53 3614 10000
347 919 9999
474 1613 10000
400 3704 9999
47 4562 10000
206 4456 10000
416 1684 10000
144 4319 9999
119 942 9999
342 2002 9999
125 174 9999
451 2888 10000
99 609 9999
231 2852 9999
260 1935 9999
251 2228 9999
35 918 9999
167 4780 9999
198 2867 10000
251 2802 9999
292 2712 10000
139 385 10000
107 505 10000
374 505 9999
460 3977 9999
327 1797 9999
28 364 9999
152 3151 9999
181 3717 9999
145 2390 10000
53 4507 10000
162 3434 9999
399 3981 10000
49 3176 9999
327 2646 10000
271 3823 10000
121 3686 10000
206 4634 10000
5 1984 10000
147 1941 10000
298 1073 10000
270 3740 9999
274 951 9999
373 4184 9999
276 4054 10000
353 3308 9999
212 929 10000
241 1666 9999
138 4421 9999
95 2800 9999
96 2155 9999
122 1231 9999
89 3635 9999
150 4890 9999
247 1038 9999
476 2573 10000
461 4012 10000
81 4494 10000
269 855 10000
144 2618 9999
216 4294 10000
148 3848 10000
207 4108 9999
389 4995 9999
224 475 10000
161 1563 9999
344 1645 9999
286 2643 9999
70 3083 9999
331 1406 9999
377 4707 9999
468 3479 10000
127 3308 9999
72 4421 10000
191 2049 10000
336 4025 9999
368 992 9999
242 4570 9999
60 1246 9999
484 3254 10000
450 2077 9999
431 4910 10000
476 2753 10000
416 1758 9999
491 3317 9999
142 2088 9999
284 604 9999
4 4383 9999
126 3351 10000
27 3072 10000
150 2800 10000
110 819 10000
248 348 10000
410 835 9999
145 4130 9999
246 877 10000
348 2075 10000
319 3179 10000
96 2739 10000
381 3265 9999
288 4371 10000
127 4813 10000
225 2430 9999
183 2819 9999
231 2782 10000
297 3339 10000
42 4366 9999
264 1929 10000
380 722 9999
74 675 9999
475 851 9999
328 2940 9999
90 1036 10000
276 1755 10000
448 1386 9999
308 2358 9999
208 4445 10000
176 3608 10000
346 3226 9999
55 4051 10000
81 3597 10000
398 3670 10000
311 1453 9999
54 4872 9999
271 3757 9999
382 1640 10000
183 2781 9999
381 1257 10000
249 1359 9999
110 248 10000
157 2796 9999
175 1906 9999
440 3302 9999
401 3249 10000
75 387 10000
338 3925 10000
245 1195 10000
368 4390 10000
206 1182 9999
302 535 10000
52 1413 10000
135 4777 9999
85 3656 9999
10 4049 9999
29 1874 10000
125 3410 9999
70 4380 9999
362 2602 9999
83 1478 9999
411 3390 10000
312 3691 9999
114 1721 10000
128 2645 9999
354 3740 10000
241 1983 10000
431 4258 9999
116 4206 9999
411 572 9999
179 4036 9999
309 561 10000
76 3906 10000
463 2085 10000
94 4776 10000
111 3055 9999
361 1042 9999
422 3049 9999
55 3034 10000
276 4678 10000
97 4253 9999
263 3479 10000
310 4109 9999
126 3501 9999
63 2727 9999
492 828 9999
249 2542 10000
56 3868 10000
151 3619 9999
439 465 10000
33 2025 9999
337 663 9999
50 1414 9999
304 1803 9999
246 3874 10000
70 2644 10000
394 2873 10000
390 2748 9999
275 1802 9999
77 3323 9999
82 2215 10000
412 2263 10000
439 2251 10000
404 2614 10000
129 4305 10000
494 1649 9999
492 3648 9999
446 2834 9999
55 2309 10000
254 356 9999
367 4344 10000
292 2901 10000
194 2477 10000
88 3338 10000
497 2191 10000
381 494 10000
478 2686 10000
13 144 10000
9 2757 9999
104 4619 10000
275 2844 9999
368 4762 9999
444 1678 9999
190 3792 10000
304 359 9999
278 2448 10000
426 2279 9999
461 2551 10000
96 1682 9999
260 284 9999
408 1944 9999
65 1710 9999
245 1074 10000
179 4589 9999
293 2296 10000
436 2262 9999
38 3351 9999
38 1572 9999
47 700 9999
346 4693 9999
143 4922 9999
78 1202 10000
110 4258 10000
328 3661 10000
44 2819 10000
76 2315 9999
374 4061 10000
25 904 9999
473 2092 10000
225 1461 10000
304 1431 9999
148 4171 10000
382 2966 9999
144 3332 9999
213 258 9999
254 3459 9999
113 3126 10000
9 2712 10000
110 988 10000
37 3605 9999
8 955 9999
432 2562 10000
244 754 9999
136 1703 9999
42 173 10000
389 645 10000
130 1680 9999
348 3976 10000
62 536 9999
31 1347 10000
341 1251 10000
161 1541 10000
366 614 9999
189 4017 9999
74 3093 10000
182 4239 9999
393 4347 9999
30 4522 10000
448 1404 10000
25 3362 9999
499 3556 9999
296 1726 10000
319 880 9999
13 2783 10000
272 1126 10000
214 2312 9999
121 1035 10000
168 2231 9999
52 2008 10000
240 4005 9999
153 787 9999
235 2137 10000
375 3350 9999
455 2860 10000
316 1316 9999
205 2430 9999
69 631 9999
172 1450 10000
320 1057 9999
443 823 9999
228 3538 10000
91 4656 10000
276 3852 9999
77 3683 9999
350 4295 10000
271 1833 10000
280 639 10000
305 3127 10000
311 3728 10000
77 1924 9999
302 3467 10000
452 4973 9999
492 2786 9999
380 4829 9999
116 3046 9999
410 1498 9999
124 3163 9999
168 235 10000
211 2356 9999
500 3159 9999
299 3225 9999
94 3099 10000
451 1832 10000
440 1709 9999
86 1361 10000
441 709 10000
39 2538 9999
487 3151 10000
273 2860 9999
433 1055 10000
197 1270 10000
472 3616 9999
77 2586 10000
442 3666 9999
3 1295 9999
336 3937 10000
416 3523 10000
16 255 10000
20 4450 9999
358 4785 10000
446 584 10000
442 702 9999
412 2131 9999
129 398 10000
73 1757 9999
53 3053 10000
13 702 10000
129 1045 10000
292 2678 10000
263 2117 10000
471 1571 10000
367 3091 10000
431 1782 10000
286 3204 9999
483 2314 9999
323 3297 10000
499 1396 10000
133 2398 9999
301 2798 10000
59 2228 9999
428 3448 10000
480 4336 9999
286 2723 9999
46 3011 9999
354 4087 10000
3 2839 10000
112 4285 9999
66 300 10000
187 2349 9999
498 3147 9999
360 4029 9999
310 1555 9999
434 2625 10000
260 2494 9999
78 1906 10000
124 2137 10000
84 1702 9999
285 2409 9999
22 2312 10000
446 1801 10000
211 960 9999
236 687 9999
432 548 10000
449 3652 9999
475 1912 10000
8 3187 10000
165 4517 10000
272 3905 9999
113 1509 10000
463 3493 9999
302 3780 10000
75 3120 9999
59 4240 9999
171 324 9999
345 3233 10000
479 3169 10000
346 1845 10000
266 980 9999
340 976 9999
25 280 9999
356 4250 10000
358 2367 9999
12 3675 10000
324 4398 10000
456 1936 9999
335 4815 9999
206 620 9999
467 1527 9999
119 1543 10000
463 3646 10000
37 2588 10000
222 3055 10000
357 2568 10000
420 1184 10000
199 4750 9999
399 449 10000
141 2941 10000
155 162 9999
184 1734 10000
91 2211 9999
45 4111 10000
348 3663 10000
429 3263 9999
339 1796 9999
104 3624 10000
27 4580 9999
154 4089 9999
430 1925 10000
306 2011 10000
48 997 10000
273 336 9999
384 3575 10000
323 1157 10000
451 1276 9999
137 1400 10000
18 1841 10000
229 644 10000
495 4500 10000
13 3360 10000
324 3119 9999
373 986 9999
135 1917 9999
398 4560 9999
482 3665 10000
29 1823 10000
59 4418 10000
247 1261 9999
333 1335 10000
45 4834 9999
81 2010 9999
395 3453 9999
382 4869 9999
143 2197 9999
21 2628 9999
74 2717 9999
15 1124 9999
89 1551 10000
412 4077 10000
363 4141 10000
462 1467 10000
409 496 9999
326 1858 9999
59 1243 10000
409 3668 10000
130 1811 9999
218 2881 10000
338 2149 9999
185 1393 9999
158 2704 9999
238 1520 9999
230 589 9999
444 3378 9999
426 3168 10000
438 493 9999
277 4665 9999
308 3841 9999
460 1985 9999
414 2987 9999
240 1112 10000
308 4005 10000
208 3991 10000
379 2766 10000
17 595 9999
219 365 9999
307 929 10000
473 2451 10000
420 3562 10000
464 1503 10000
492 902 10000
144 475 10000
258 2271 9999
498 1854 10000
78 3342 10000
21 3464 10000
334 4495 9999
231 4693 9999
418 2367 9999
469 1300 10000
282 3990 9999
135 1085 9999
134 801 10000
68 3907 9999
159 3239 9999
497 4771 9999
314 4743 10000
410 1149 9999
253 4555 10000
259 2958 10000
345 3470 10000
29 1724 9999
272 3459 10000
476 2195 9999
459 832 10000
24 2793 10000
94 3176 10000
109 1506 9999
485 4524 10000
291 2141 9999
446 454 9999
192 4724 10000
106 4883 9999
81 4969 9999
267 3768 9999
118 3076 10000
152 2971 9999
236 2314 10000
349 4942 10000
239 1146 10000
7 2140 10000
36 3055 10000
310 4653 10000
348 1577 10000
106 2602 9999
386 2206 10000
164 3598 10000
105 1442 9999
170 2834 10000
265 1360 10000
449 1308 9999
32 1492 10000
239 3132 9999
221 1600 10000
203 1018 9999
27 4282 9999
231 3941 9999
409 3348 10000
174 1994 9999
475 1859 10000
5 2653 9999
52 4337 10000
136 597 10000
408 1937 10000
246 4400 9999
184 3168 9999
441 2766 9999
149 1686 9999
338 3014 9999
407 4403 9999
307 4885 10000
166 2736 9999
409 1050 10000
321 3404 10000
321 1906 10000
404 3993 10000
396 1388 10000
163 305 10000
145 2831 10000
157 3346 9999
232 2053 9999
302 4739 10000
91 2977 9999
40 1689 9999
195 1075 9999
315 2093 9999
461 4580 9999
287 2322 9999
199 3789 9999
321 1797 10000
229 4430 9999
183 4892 10000
310 3769 10000
10 4462 10000
169 2275 9999
15 4480 10000
185 963 9999
358 3418 10000
188 2608 10000
181 1318 10000
59 446 9999
372 2756 10000
330 4677 10000
154 235 9999
485 4692 10000
431 4898 10000
44 1803 9999
262 1258 10000
256 3368 10000
283 2598 10000
272 1206 9999
28 1971 10000
60 408 10000
488 1296 9999
198 3939 10000
420 2436 10000
303 4124 9999
118 3658 10000
89 2118 10000
46 1500 9999
398 2811 10000
452 2615 9999
456 4176 9999
494 1162 9999
18 2724 10000
244 3216 10000
393 568 9999
221 3644 10000
55 2093 10000
271 3244 9999
5 4859 10000
184 3341 9999
348 2794 10000
274 2587 9999
14 3032 9999
248 732 9999
422 4667 10000
75 375 10000
88 3710 10000
377 596 9999
118 4501 9999
350 2162 10000
244 2160 9999
151 4351 9999
214 401 9999
168 2090 10000
31 3149 9999
61 2116 9999
236 4403 9999
285 1206 9999
359 4965 10000
436 1745 9999
115 600 9999
279 2974 10000
385 2937 9999
194 3005 9999
366 2878 10000
156 3389 10000
453 1495 10000
379 4290 10000
466 3371 10000
413 4758 9999
74 548 10000
263 4097 9999
293 1541 10000
476 955 9999
35 614 10000
454 713 10000
337 2675 9999
332 1767 9999
308 2039 9999
438 2237 9999
125 1516 9999
121 3114 10000
63 3987 9999
202 1432 9999
57 1621 10000
420 4972 10000
99 2467 9999
407 4563 10000
461 2822 9999
181 1185 10000
156 3390 10000
98 4547 10000
432 1097 10000
433 4982 9999
46 1296 10000
240 1086 10000
252 4713 10000
104 2058 10000
241 4376 10000
23 3330 10000
276 1008 9999
447 3508 10000
122 754 9999
206 271 10000
165 4466 10000
379 1280 9999
83 3361 9999
182 1501 10000
277 787 9999
217 1346 10000
386 3839 9999
351 1479 9999
209 3303 9999
300 1887 9999
429 2774 10000
261 2493 10000
24 990 10000
90 4037 10000
173 762 10000
419 2456 9999
429 919 10000
390 3761 9999
3 3384 10000
293 1061 10000
467 3960 9999
194 2970 9999
344 2362 9999
51 4683 10000
218 3542 10000
380 4635 10000
424 2708 9999
243 3611 10000
69 316 10000
67 1926 9999
210 4575 10000
432 3771 10000
494 2854 10000
416 1889 9999
138 2000 9999
395 3357 9999
100 4683 9999
239 3963 9999
57 2502 9999
368 3041 9999
493 4011 10000
289 955 10000
212 3591 10000
370 2915 10000
250 645 9999
190 4441 10000
90 3770 9999
338 3227 10000
432 4937 9999
171 4059 9999
305 3693 10000
394 3395 9999
230 585 10000
248 3621 10000
489 628 10000
226 2992 9999
214 2970 9999
393 4205 10000
239 2979 10000
136 4235 10000
46 123 10000
444 753 9999
126 2783 9999
250 4782 10000
68 597 10000
59 2993 10000
250 2757 9999
15 3077 9999
329 2481 10000
293 3634 10000
101 3112 9999
189 4790 9999
480 4584 9999
426 1479 9999
161 1526 10000
115 1898 10000
347 1597 9999
26 3462 10000
150 762 9999
472 3178 10000
238 3081 9999
367 4798 9999
81 4411 9999
215 3316 9999
74 3470 9999
212 445 10000
208 1127 10000
112 2090 10000
350 2526 9999
198 1584 10000
82 4222 9999
100 1790 10000
278 4920 10000
375 566 9999
237 4201 10000
253 2279 9999
22 898 9999
294 4714 9999
43 2882 9999
86 2680 10000
217 4958 10000
405 2366 9999
197 288 10000
70 3320 10000
264 4546 9999
184 1721 10000
225 983 10000
36 2779 10000
449 2198 9999
280 2110 9999
410 874 9999
228 3731 10000
27 2761 10000
180 4955 9999
390 1509 9999
388 2417 9999
464 3834 10000
180 1751 9999
238 3496 9999
331 1312 9999
414 641 9999
268 2586 10000
233 1134 9999
300 3500 9999
59 3490 10000
215 3857 9999
359 3218 10000
298 2244 10000
3 162 10000
226 3148 10000
220 844 9999
142 4941 9999
377 4016 9999
422 845 10000
477 2459 10000
363 810 10000
332 569 9999
269 3415 9999
400 1225 9999
68 3105 10000
254 4648 10000
293 4248 10000
456 3680 10000
245 2469 10000
56 4719 10000
191 1579 10000
239 1837 9999
268 629 10000
15 2575 10000
70 2425 10000
154 4041 9999
255 1307 9999
141 2251 9999
23 339 10000
415 2460 9999
21 749 9999
43 1226 9999
237 2682 10000
477 941 10000
321 1168 10000
434 3596 10000
305 2757 9999
397 2716 10000
413 3652 9999
67 1539 10000
262 1045 10000
150 3379 10000
381 3930 10000
84 690 10000
320 4117 9999
97 2847 9999
400 2296 9999
230 3493 10000
389 2765 9999
392 3080 10000
200 3259 9999
235 2651 10000
473 4479 10000
103 317 9999
347 355 10000
206 1540 10000
327 2139 9999
8 4610 9999
403 1762 9999
435 3274 9999
51 913 9999
137 1425 10000
453 4177 10000
493 1556 10000
281 2469 9999
106 4822 9999
215 4921 10000
454 2614 10000
207 1443 10000
383 3777 10000
356 1267 9999
414 4729 10000
237 4057 10000
282 1107 9999
71 3802 9999
202 2674 10000
445 4382 10000
487 626 9999
405 2747 9999
341 1266 10000
17 4580 9999
10 4987 10000
48 1658 10000
410 3583 10000
389 2358 10000
20 2768 9999
457 4634 10000
178 1354 10000
122 4027 9999
22 1641 10000
281 3523 9999
223 585 9999
95 2034 10000
171 3108 10000
168 1044 10000
11 2882 9999
134 780 10000
429 4735 10000
460 1714 9999
430 2681 10000
415 3676 10000
350 2073 9999
186 1043 9999
287 2942 10000
442 4289 9999
449 932 10000
440 1008 10000
420 3280 10000
245 2635 9999
23 2032 10000
249 4472 10000
437 639 10000
212 1806 10000
319 470 9999
280 2664 9999
406 1608 10000
30 717 10000
494 2846 10000
59 1854 10000
438 2764 10000
429 3348 9999
364 719 9999
272 2494 10000
137 3786 9999
3 3937 10000
241 3211 10000
337 4366 9999
167 3054 10000
231 3754 9999
403 4155 10000
287 2776 9999
100 201 9999
486 1549 10000
355 4087 9999
332 2511 9999
211 1102 9999
143 4418 10000
471 3010 10000
166 2007 10000
392 468 9999
45 2556 9999
265 4257 10000
482 2027 10000
302 4780 9999
153 1574 9999
9 1065 9999
250 1911 10000
410 3983 9999
280 2627 10000
183 3603 10000
109 2642 10000
109 507 10000
388 2816 9999
89 2982 9999
449 2613 10000
450 1090 9999
145 1084 10000
336 1241 10000
216 3522 9999
396 4758 10000
332 4620 9999
430 1239 9999
470 1436 9999
332 4351 10000
295 591 9999
3 3191 9999
463 1190 10000
235 3799 10000
230 1612 10000
435 2567 9999
241 3954 10000
410 1506 9999
226 1011 9999
376 682 9999
269 4898 9999
424 592 9999
25 1694 10000
364 621 10000
500 3511 10000
344 2234 9999
20 697 10000
435 4085 10000
341 1942 10000
402 2985 10000
270 1503 9999
266 2758 9999
333 3858 10000
376 3318 10000
438 2113 10000
461 1572 9999
423 813 9999
65 219 10000
384 4935 9999
25 360 10000
468 2556 9999
33 4923 9999
43 4681 10000
326 803 10000
267 2888 10000
369 4229 9999
418 2869 10000
150 2832 10000
203 4999 9999
362 1446 10000
9 3835 10000
186 2133 9999
87 1174 10000
407 1290 9999
220 2524 9999
127 923 10000
98 2612 10000
279 1419 10000
226 4270 10000
413 1336 10000
421 3742 9999
185 4007 9999
178 952 10000
79 3289 9999
321 455 9999
416 2401 10000
377 4063 9999
471 1616 9999
150 2529 9999
53 1706 9999
73 3222 9999
252 3924 9999
293 4163 9999
119 4407 10000
493 4802 10000
39 4470 10000
461 4558 10000
476 3626 9999
246 3641 10000
131 3727 10000
393 3156 9999
175 1901 10000
125 3690 9999
389 2319 9999
114 1709 10000
245 489 9999
381 3523 10000
292 712 9999
203 3977 10000
285 2509 10000
219 3190 10000
296 2318 10000
500 3784 9999
212 4721 10000
324 3307 10000
203 2257 10000
368 504 9999
200 2328 9999
486 1442 10000
208 2015 9999
2 3329 9999
218 4048 10000
207 2150 10000
422 3768 10000
174 296 10000
228 3217 10000
453 1657 9999
5 1833 9999
413 4412 10000
108 3739 9999
7 1480 10000
330 769 10000
171 501 10000
289 3513 9999
94 4653 10000
2 4315 9999
104 3833 9999
399 4065 10000
300 1483 9999
154 2329 9999
179 2753 9999
399 3631 10000
59 3078 9999
13 1990 10000
229 2955 9999
443 3658 10000
311 620 10000
419 1987 10000
39 1183 9999
6 3459 10000
271 2225 9999
450 3419 9999
467 3153 9999
159 2076 10000
164 4838 10000
369 4115 10000
141 2968 10000
289 3041 10000
253 1005 9999
279 1303 10000
354 974 9999
159 586 10000
155 4658 9999
435 4621 9999
474 980 9999
295 874 9999
336 4538 9999
412 4984 10000
308 3173 9999
265 4800 10000
30 3646 9999
234 2787 9999
108 714 10000
269 1600 9999
467 3668 9999
447 2122 10000
19 4315 10000
190 1897 10000
460 3501 9999
234 4321 9999
300 2731 10000
108 3487 10000
6 3097 10000
139 2408 9999
209 3994 10000
318 1126 9999
180 3620 9999
183 241 9999
329 2147 9999
319 4737 10000
199 2997 10000
67 1693 10000
363 4850 10000
477 2333 10000
146 3967 9999
449 3597 10000
436 3212 9999
278 4549 9999
64 4163 10000
227 3634 9999
118 3980 9999
99 2348 10000
42 3945 10000
247 2204 10000
24 3005 10000
135 138 9999
344 4063 10000
387 4694 10000
46 1854 10000
253 1418 10000
66 473 9999
15 3814 10000
495 4679 9999
365 1690 10000
480 1711 10000
329 1296 10000
229 4662 9999
288 3684 9999
229 4971 9999
12 4661 10000
43 3826 9999
185 3968 10000
173 579 9999
23 4844 10000
378 4351 10000
416 2998 10000
35 1610 10000
116 224 9999
435 4357 9999
223 2421 9999
43 3695 9999
226 1965 10000
185 3070 10000
169 532 10000
186 1704 9999
224 1835 9999
226 4729 10000
47 2278 9999
409 4571 9999
444 2191 9999
243 2948 10000
333 3549 9999
312 620 10000
500 2677 10000
249 4644 9999
433 4410 9999
73 2570 9999
37 3735 9999
103 3098 10000
333 2787 10000
100 3000 9999
443 642 9999
266 4030 10000
270 3413 10000
134 4042 10000
9 4189 9999
462 3971 9999
463 3013 9999
273 4332 9999
27 708 9999
343 427 10000
451 1411 10000
209 1852 9999
290 1703 10000
498 1150 10000
159 3788 10000
189 4691 10000
55 3904 10000
220 622 10000
171 4567 9999
467 4464 10000
236 3229 10000
13 4409 9999
81 916 9999
303 1324 10000
159 1020 9999
383 1505 9999
334 896 10000
298 2576 10000
458 3218 9999
474 4610 10000
121 3012 10000
393 590 9999
367 723 9999
173 3321 10000
5 2775 10000
403 1273 9999
435 3785 9999
329 786 9999
162 814 10000
65 1813 10000
21 3478 9999
226 2139 10000
326 2627 9999
93 4257 9999
117 3792 10000
46 3971 9999
255 4389 10000
261 4034 10000
310 2739 10000
367 2891 10000
206 4504 10000
116 4649 9999
440 618 9999
69 2501 10000
423 4202 9999
176 3808 10000
73 3797 9999
201 4220 9999
373 4068 10000
477 1306 9999
331 4186 9999
211 3793 9999
229 1785 9999
401 923 9999
426 3153 10000
262 2113 10000
170 1068 10000
441 2772 10000
112 3437 10000
454 4495 9999
56 2869 9999
185 1241 10000
472 1300 9999
63 3472 10000
179 2196 9999
481 4512 10000
47 796 10000
262 3078 9999
314 2795 9999
416 4801 10000
279 3886 10000
21 3908 9999
8 1172 10000
69 813 9999
362 4987 10000
235 2684 10000
432 3440 10000
86 4621 10000
419 4923 10000
257 1418 9999
463 2306 9999
189 2093 10000
80 660 9999
29 457 10000
267 737 10000
433 654 9999
351 4559 10000
12 4989 9999
63 1733 9999
490 1535 10000
147 3791 10000
415 1365 9999
282 3503 10000
98 4518 9999
498 4700 9999
22 3475 9999
360 523 9999
149 4896 10000
408 3620 10000
22 2972 9999
443 1066 10000
187 4078 10000
325 2040 10000
181 3697 9999
401 526 9999
162 3017 9999
207 2613 10000
23 4307 10000
60 458 9999
349 3113 10000
109 2014 10000
282 1225 9999
97 4213 9999
193 3026 9999
207 227 9999
188 2724 9999
64 896 10000
117 1625 9999
211 2542 9999
252 1197 10000
268 973 9999
27 318 9999
335 934 9999
327 3075 9999
479 1057 9999
8 2364 10000
150 1146 10000
291 366 10000
79 2987 10000
341 940 9999
281 1855 9999
192 3925 10000
459 2086 10000
306 2972 10000
341 3017 9999
147 2757 9999
64 3055 10000
48 4861 9999
157 4437 9999
259 2938 10000
173 1468 10000
398 2944 10000
281 478 9999
308 4088 9999
344 1116 9999
415 3526 10000
39 3889 9999
379 3783 10000
491 1390 9999
204 4138 9999
111 2763 9999
360 736 9999
441 1777 10000
373 1287 10000
203 1315 9999
366 3981 9999
412 3490 9999
442 513 10000
381 1020 10000
412 2802 10000
338 3154 9999
363 4930 10000
106 2608 10000
111 2672 9999
145 2030 9999
438 3316 9999
388 1366 9999
171 1612 9999
137 4782 9999
368 1575 9999
299 3415 9999
207 4418 10000
296 2162 9999
285 4131 9999
83 4751 9999
328 1875 10000
149 410 9999
207 609 9999
122 3073 9999
66 2005 10000
254 865 10000
323 1836 9999
31 1448 9999
237 1696 9999
305 569 10000
297 2388 9999
116 4971 9999
288 1034 9999
65 934 9999
8 4997 10000
153 1055 10000
353 4460 9999
10 2041 10000
320 702 9999
243 445 9999
155 1376 10000
369 4852 9999
497 1738 9999
200 2190 9999
421 2335 10000
478 4576 10000
293 498 9999
161 4043 9999
497 3677 9999
456 1182 10000
89 4997 9999
269 2228 9999
68 570 10000
28 4551 10000
96 1059 10000
70 935 10000
350 816 9999
199 2456 9999
83 3330 9999
146 4783 10000
349 1387 10000
106 1404 9999
189 2113 10000
215 1652 9999
93 3076 10000
105 3584 9999
221 4580 9999
24 4163 10000
391 2764 10000
232 3342 10000
52 2195 10000
223 4301 10000
204 2414 9999
238 3358 9999
200 4822 9999
11 3643 9999
185 396 9999
334 1977 10000
443 2743 9999
232 2278 10000
264 1461 9999
294 1385 10000
311 3639 10000
304 2582 9999
495 2108 10000
100 3268 10000
71 4360 10000
122 1718 10000
29 820 10000
82 1290 9999
209 4845 9999
10 32 10000
209 4962 9999
414 2010 9999
268 1553 10000
46 3466 10000
354 4930 10000
344 3026 9999
299 1145 9999
151 2078 10000
67 556 10000
318 986 9999
245 4163 10000
371 4137 9999
21 2771 9999
173 647 10000
29 3409 10000
186 3224 9999
375 3456 9999
388 2482 10000
289 4895 10000
108 4947 9999
138 1330 9999
85 4018 9999
247 2290 9999
258 655 9999
393 4639 10000
391 613 10000
97 909 10000
436 2792 9999
366 386 9999
248 1127 10000
333 478 9999
122 326 10000
290 3378 10000
166 1617 9999
196 4697 10000
45 280 9999
65 4730 10000
165 1350 10000
61 3953 9999
110 2492 10000
58 560 10000
233 801 9999
100 2288 10000
391 3016 9999
340 2930 10000
346 3123 10000
334 2665 9999
390 391 9999
493 3594 10000
344 2041 9999
205 4446 10000
162 3288 10000
450 2527 10000
279 2135 9999
173 2990 10000
183 1907 10000
180 1409 10000
116 4257 9999
228 2005 10000
209 2392 9999
203 2340 9999
46 3902 9999
397 4718 10000
122 4196 10000
211 1104 9999
450 4203 9999
470 1530 10000
26 4035 9999
193 4131 10000
416 720 10000
189 4920 9999
356 3436 10000
319 2252 10000
22 3618 10000
164 1628 9999
34 1114 9999
90 3812 9999
212 2682 9999
180 2554 9999
175 4521 9999
22 3566 9999
266 914 10000
226 3978 9999
492 930 10000
219 4788 9999
254 2397 10000
26 1852 10000
246 2661 10000
369 1441 9999
106 2365 9999
302 4673 10000
180 2041 10000
330 4575 10000
476 1522 9999
190 4795 9999
483 940 10000
257 3118 10000
17 4432 9999
325 1323 10000
359 4947 10000
499 2650 9999
370 2906 10000
197 1334 10000
99 2103 9999
21 4036 10000
383 2303 10000
326 4130 9999
276 1583 9999
209 4733 10000
87 4814 10000
274 4780 9999
338 3996 9999
396 853 10000
17 2461 10000
210 519 10000
82 3022 9999
292 2298 10000
482 2693 10000
106 4792 9999
300 4318 9999
428 2725 9999
325 3617 9999
347 3044 9999
154 803 10000
219 497 10000
12 1749 9999
241 894 9999
473 3186 9999
414 2207 10000
211 444 10000
475 2428 10000
386 1088 9999
438 1435 10000
461 4143 10000
30 3806 9999
377 731 10000
249 384 10000
136 1110 10000
153 1558 10000
350 3440 9999
169 2017 10000
471 3192 10000
290 2694 9999
461 2297 9999
48 4320 10000
486 4714 10000
214 1405 9999
91 979 9999
99 1875 9999
66 174 10000
227 3444 9999
217 301 10000
370 1753 10000
471 4622 9999
212 4654 10000
55 1328 9999
457 1438 9999
21 2863 10000
382 4685 9999
102 1436 9999
192 2138 10000
145 3996 10000
258 2637 10000
400 3646 10000
224 2762 10000
335 1385 9999
434 3165 10000
73 2980 9999
345 3795 10000
491 1969 10000
282 874 10000
204 3533 9999
237 1549 10000
242 2118 9999
428 1076 10000
113 582 10000
113 1835 9999
429 1135 9999
429 521 9999
347 1148 10000
397 2030 10000
360 2131 10000
287 2053 9999
248 2638 10000
359 4290 9999
167 4959 10000
41 2354 10000
288 4195 10000
263 1860 10000
481 1068 9999
434 3331 10000
251 2054 10000
10 4092 9999
158 1269 9999
246 1384 10000
259 1820 10000
492 2851 10000
100 1260 10000
47 634 9999
447 4404 10000
114 3703 9999
151 3870 10000
370 543 9999
16 3864 10000
142 1945 10000
397 4290 10000
72 4751 9999
379 2466 9999
265 4998 9999
207 662 9999
173 1100 9999
172 2155 10000
177 1454 9999
224 2524 9999
329 2701 9999
229 584 10000
291 3541 9999
75 2462 9999
443 1991 10000
78 4924 10000
37 2276 9999
254 4358 9999
37 1228 10000
462 4854 9999
263 2813 9999
426 4724 10000
212 963 10000
417 4315 10000
10 3759 9999
152 646 9999
243 4128 10000
323 594 10000
284 4955 9999
224 4771 9999
52 1426 10000
405 2530 10000
250 905 9999
104 3164 10000
91 4390 9999
314 4102 9999
141 755 10000
59 3553 10000
438 2787 9999
292 1703 9999
406 2000 10000
353 709 9999
428 4789 10000
496 3057 9999
308 3409 9999
285 2957 9999
189 374 10000
27 3159 9999
418 2080 10000
330 1222 9999
183 3115 9999
289 3591 9999
1 4055 9999
484 3173 9999
474 3537 10000
431 4656 10000
136 1123 10000
496 4988 10000
328 3721 9999
224 2108 9999
170 1044 10000
104 2653 10000
301 4609 10000
148 898 10000
22 329 10000
130 1889 9999
491 4356 9999
460 4242 10000
321 4331 9999
350 2175 10000
425 590 10000
178 2461 9999
412 455 9999
453 3407 10000
206 4441 10000
184 4230 9999
374 500 9999
453 1768 10000
124 2900 9999
5 562 9999
488 960 10000
247 4234 9999
462 2392 9999
172 4609 10000
40 645 10000
477 751 9999
167 1230 9999
219 2039 10000
427 1361 10000
290 4855 10000
11 402 9999
32 1417 9999
48 3301 10000
367 2196 9999
26 4421 10000
238 2487 9999
253 2099 10000
496 866 10000
180 2092 9999
182 4520 9999
19 4572 10000
44 4230 9999
45 3240 9999
111 161 9999
417 1086 9999
123 1484 10000
401 2744 9999
46 1531 10000
460 2776 9999
47 4024 9999
217 748 10000
389 3139 10000
283 2230 9999
143 780 10000
420 3715 9999
162 3952 10000
332 1401 9999
84 2365 9999
227 3615 9999
112 2909 9999
288 1400 10000
166 4539 10000
490 541 10000
47 2163 10000
26 4231 9999
405 787 9999
344 4437 10000
452 858 9999
413 2436 10000
121 4954 9999
257 4647 9999
78 1979 9999
171 2660 10000
152 3969 10000
482 3560 10000
224 732 10000
305 2967 10000
276 421 10000
194 824 9999
89 3314 9999
268 743 9999
267 2052 9999
243 4968 10000
417 1605 9999
39 1551 10000
258 4505 9999
416 3973 10000
75 336 10000
69 3125 9999
167 3846 9999
421 3563 10000
368 2963 9999
96 767 10000
131 1801 9999
92 2890 9999
345 737 10000
422 730 10000
28 3660 9999
13 881 9999
344 1019 10000
179 4102 10000
385 724 9999
479 1306 9999
188 4704 9999
131 1376 9999
390 2106 10000
52 3826 10000
310 1040 9999
447 4485 10000
119 4316 10000
373 1385 9999
292 3999 10000
482 4683 9999
87 1296 10000
253 773 10000
107 195 9999
460 4243 9999
163 4314 9999
396 811 9999
347 4636 10000
238 2685 10000
330 4526 10000
139 4349 10000
357 1610 10000
16 3536 10000
211 3251 9999
469 4638 10000
153 3040 9999
284 3167 10000
491 4511 10000
366 3519 10000
203 2313 10000
225 3485 10000
148 3324 9999
382 1736 9999
336 2632 9999
389 1802 10000
112 1618 10000
132 3817 10000
323 4572 9999
336 3229 10000
314 1925 10000
235 3845 10000
34 665 9999
246 4741 9999
305 3622 9999
429 1774 10000
135 2081 10000
423 2320 10000
401 3063 9999
364 4887 10000
212 1307 9999
66 287 9999
474 2204 10000
250 1794 10000
433 2754 9999
312 1187 10000
448 3367 10000
466 1777 9999
401 1650 9999
51 1997 10000
304 693 10000
95 2034 9999
297 3185 10000
114 4566 9999
297 1156 9999
185 918 10000
224 4719 10000
407 3220 9999
112 3203 9999
224 4215 10000
223 4500 9999
63 2293 10000
167 3260 10000
224 1104 9999
324 3288 9999
322 2999 9999
151 3959 10000
82 1519 9999
375 4510 9999
28 3084 9999
340 3716 9999
31 4626 10000
183 2504 9999
474 1936 10000
485 3428 9999
456 3870 9999
140 706 10000
374 1997 10000
415 3016 9999
293 2410 9999
105 961 9999
158 3459 10000
31 4542 9999
360 1412 10000
497 4489 9999
332 3584 10000
390 2912 10000
45 1105 9999
417 4355 10000
120 2855 10000
379 1358 10000
109 439 9999
160 1619 10000
376 496 9999
232 1693 9999
325 1204 9999
443 1644 9999
244 3995 9999
27 4381 10000
12 4067 10000
342 1825 10000
373 874 9999
403 693 10000
5 1530 10000
171 559 9999
157 2180 10000
322 523 10000
126 3330 10000
108 4896 10000
226 1622 10000
45 2258 9999
438 4663 9999
47 248 10000
345 737 10000
194 1558 10000
443 2641 9999
272 3084 10000
137 1169 10000
117 3735 9999
411 3783 10000
243 3460 10000
158 4571 9999
107 1257 9999
452 2802 9999
446 4069 9999
6 2684 9999
438 4839 9999
290 3833 9999
84 3820 10000
415 4266 10000
448 2910 10000
271 4830 10000
71 2864 10000
341 4664 10000
385 2816 10000
190 3333 10000
143 2766 9999
106 1486 10000
269 3226 9999
91 1996 10000
456 4030 10000
296 1331 9999
474 1031 9999
5 68 10000
66 1981 9999
162 4528 10000
419 3447 10000
390 3955 9999
3 1501 9999
440 566 10000
361 1654 10000
254 2032 9999
130 920 10000
89 2908 9999
327 702 9999
100 1788 9999
443 897 9999
462 1699 10000
104 2701 9999
139 4797 9999
14 4136 9999
12 701 9999
217 2868 9999
245 4510 10000
60 3821 9999
479 3523 10000
218 546 10000
267 1492 9999
329 1078 10000
168 4995 10000
454 3097 10000
360 401 10000
405 3016 9999
312 2002 10000
89 1429 9999
286 2324 10000
110 4124 9999
382 3859 9999
151 3882 9999
19 4544 9999
300 1400 9999
96 2385 10000
2 4978 9999
145 1233 9999
274 4642 9999
366 4986 10000
341 1158 10000
242 1437 9999
142 2432 9999
158 4436 9999
51 3118 9999
328 2691 10000
105 2391 9999
346 1612 9999
10 1070 10000
11 2633 9999
256 933 10000
97 130 10000
201 3376 9999
130 1288 9999
269 963 10000
58 521 9999
296 4844 9999
31 2826 9999
319 2378 9999
429 3793 9999
259 3150 10000
149 3082 10000
77 3927 10000
311 1545 10000
147 156 9999
373 2673 9999
107 2306 10000
82 185 10000
118 2890 9999
199 1593 9999
216 1405 10000
106 1006 9999
248 1958 10000
178 186 9999
181 532 10000
344 2312 10000
178 4263 9999
1 4622 9999
96 591 10000
23 1361 9999
145 4697 10000
30 938 10000
388 3355 10000
114 3633 9999
64 595 9999
161 4346 10000
336 943 10000
210 2852 9999
287 4569 9999
47 4004 9999
104 3372 9999
288 2040 10000
262 771 10000
386 583 9999
398 3085 9999
127 2064 10000
247 2440 10000
373 2141 9999
148 4374 10000
116 1289 9999
341 1604 10000
209 4000 10000
14 4864 10000
412 4296 9999
100 402 9999
165 4241 9999
99 1447 10000
402 2198 9999
496 685 9999
29 1682 10000
436 4647 10000
438 3929 10000
348 4325 9999
496 3141 10000
490 4990 10000
217 789 10000
177 2946 10000
220 1063 10000
65 177 9999
170 2734 9999
343 4847 9999
319 4634 10000
153 948 9999
130 1341 10000
131 648 10000
122 4766 10000
4 2248 9999
282 1987 9999
448 1228 9999
466 688 9999
193 3275 9999
2 324 9999
436 780 9999
185 2422 10000
389 3021 9999
261 3178 10000
138 4617 10000
365 3796 9999
345 1127 9999
389 574 10000
100 4895 9999
204 3381 10000
335 3993 10000
447 3910 9999
386 1996 10000
325 343 10000
286 2783 9999
326 2222 9999
10 3668 10000
223 1658 9999
159 4049 10000
268 1946 10000
454 3214 10000
157 2964 10000
298 4198 9999
316 709 10000
401 4383 9999
150 2039 9999
155 849 10000
295 2319 9999
335 1204 10000
93 1414 9999
155 2936 9999
311 4417 9999
20 2972 9999
190 1053 10000
237 1834 9999
168 3560 10000
104 4174 9999
285 1247 9999
413 1185 9999
219 2534 10000
388 2027 9999
352 3452 10000
354 4019 9999
114 4101 9999
430 4197 10000
367 2938 9999
231 3813 10000
168 1360 10000
419 1199 10000
312 1383 10000
251 2461 9999
389 3157 10000
400 3845 9999
343 3103 9999
215 443 9999
35 4621 9999
228 360 10000
346 574 10000
196 1464 9999
397 4497 9999
347 1310 9999
411 1759 10000
57 3520 9999
151 2596 9999
329 672 10000
472 3400 10000
227 2718 9999
338 4758 10000
11 4252 10000
81 203 10000
150 3329 9999
267 1793 10000
32 2486 9999
255 629 9999
169 1108 9999
463 518 9999
79 4465 9999
460 1641 10000
263 2015 10000
475 3080 9999
126 664 10000
460 4209 10000
75 4282 10000
140 2553 9999
170 4354 9999
79 597 9999
378 4500 10000
346 2570 9999
338 1154 9999
410 4526 10000
448 4865 10000
408 2041 10000
441 1689 10000
290 3078 9999
390 1051 10000
358 4462 9999
388 1203 9999
376 4115 9999
250 2463 9999
172 2871 9999
430 3427 9999
366 384 10000
116 1566 9999
351 3461 10000
80 880 10000
178 376 10000
386 3993 10000
75 4035 9999
140 4521 10000
78 2977 10000
59 1227 10000
96 4687 10000
267 990 9999
227 4852 9999
3 3093 10000
435 771 10000
306 2769 9999
248 2369 9999
391 4261 10000
394 1888 10000
145 2267 9999
218 1808 9999
5 1803 9999
374 748 9999
227 4202 9999
352 4128 10000
95 1023 9999
349 789 9999
259 3773 10000
51 4837 10000
169 3111 9999
236 897 10000
428 815 9999
112 4450 9999
345 929 10000
351 4574 9999
6 3645 10000
119 812 9999
355 2401 9999
237 1509 9999
436 3879 9999
105 4584 10000
266 1199 9999
13 1023 9999
372 2943 10000
482 3014 10000
211 3412 10000
347 473 9999
404 3105 10000
494 2471 10000
7 1289 10000
359 4240 10000
79 1993 10000
486 2749 10000
386 3829 9999
102 4452 9999
395 2351 10000
225 4647 10000
81 4550 10000
193 2315 10000
350 4609 9999
485 1546 9999
74 840 10000
444 1924 10000
364 2208 10000
177 4997 10000
458 2440 9999
39 301 9999
415 3494 9999
85 2931 10000
223 2035 10000
90 1893 10000
150 2844 10000
449 3938 9999
394 4560 9999
415 3624 9999
499 3864 10000
231 2226 9999
458 1494 9999
456 878 9999
189 898 9999
444 4104 9999
10 4083 9999
86 785 10000
12 2329 9999
332 2075 9999
188 2681 9999
308 4325 10000
288 2529 10000
120 4099 10000
150 4241 9999
222 4613 10000
288 3449 9999
159 4645 10000
112 3722 10000
373 4550 9999
230 2797 9999
39 1955 9999
458 505 9999
129 998 10000
375 2482 10000
253 724 10000
4 3678 9999
98 1407 9999
151 1950 9999
104 355 9999
10 4542 9999
368 1369 9999
289 1091 10000
82 950 9999
343 4867 9999
430 844 10000
105 4234 9999
403 1568 9999
103 2484 9999
325 3343 9999
434 4540 10000
189 984 9999
211 359 9999
167 2007 10000
206 2067 10000
446 1062 10000
81 3199 10000
19 61 9999
191 2633 9999
139 1409 9999
405 2686 9999
384 2389 9999
272 2089 10000
292 1207 9999
125 906 10000
26 4451 9999
61 2004 9999
157 4051 10000
484 4877 9999
319 2454 10000
394 3186 10000
138 1319 10000
7 3899 9999
145 3407 10000
94 2269 9999
254 1737 9999
194 1696 10000
105 3368 9999
62 2808 10000
57 919 9999
354 3109 10000
464 1708 10000
342 1881 9999
29 3296 10000
159 3918 10000
405 2644 10000
147 4578 10000
315 4193 9999
150 2181 9999
305 4246 10000
462 3327 9999
204 4027 9999
380 1449 10000
132 3144 10000
404 3315 10000
144 4414 9999
204 2732 9999
48 2193 10000
474 4709 9999
369 4682 10000
367 1363 9999
409 4920 10000
165 1322 10000
4 1753 9999
140 3435 9999
317 4796 10000
76 2760 10000
495 1794 10000
82 351 10000
276 2705 10000
442 1898 10000
270 1166 10000
294 1954 10000
301 4144 9999
20 2838 10000
321 888 9999
193 2800 10000
275 4108 9999
231 2075 10000
400 1664 10000
282 1088 10000
354 4221 10000
458 3239 10000
294 4052 10000
168 4056 10000
325 831 10000
459 4277 10000
454 2865 9999
36 1194 10000
54 312 10000
1 1506 9999
442 2611 9999
5 2670 10000
117 1273 9999
128 4099 9999
149 1340 9999
90 3924 10000
300 4475 10000
13 759 9999
110 3888 9999
97 2540 10000
350 1637 9999
188 736 9999
227 4352 10000
41 51 9999
153 3907 10000
263 1271 9999
382 3404 10000
376 3934 9999
102 421 10000
313 4737 9999
128 1173 10000
392 828 9999
337 2509 10000
113 544 9999
389 1963 10000
181 358 10000
271 3323 10000
130 4443 10000
394 2371 10000
500 989 9999
71 1099 10000
222 1461 10000
107 2670 10000
435 2925 9999
352 3447 10000
289 4735 9999
497 2287 10000
268 1840 9999
478 4411 10000
330 4578 10000
396 528 9999
24 2043 10000
334 2104 10000
181 4948 10000
465 4034 9999
4 985 9999
116 2564 9999
41 772 10000
149 2225 10000
332 4579 9999
347 591 9999
406 3587 9999
307 2956 9999
141 4957 10000
334 3092 9999
482 4010 10000
225 4651 10000
134 481 9999
380 1873 9999
432 4873 9999
246 4033 9999
220 4365 10000
197 4110 10000
287 4384 9999
188 2603 10000
194 2761 10000
102 282 10000
220 1059 10000
487 4709 9999
281 2320 9999
339 2004 9999
386 3605 9999
229 1502 10000
205 2195 9999
395 4183 10000
3 4330 9999
452 3425 10000
192 3520 10000
130 577 9999
434 4793 10000
141 3341 10000
259 4585 9999
408 677 10000
174 1045 10000
474 645 10000
227 4137 9999
59 136 10000
386 4767 10000
435 4644 9999
382 2725 10000
141 4888 10000
136 1269 10000
350 1668 9999
131 1921 9999
443 707 9999
199 3721 9999
388 1517 9999
42 3582 9999
254 4156 10000
301 3772 10000
216 1322 9999
298 3345 10000
69 700 9999
257 3904 9999
444 750 9999
99 4888 9999
158 1074 9999
201 4224 9999
238 845 9999
34 3413 9999
434 3420 10000
348 3182 10000
473 4514 9999
33 2998 10000
318 1139 10000
150 1760 10000
242 3760 9999
425 2631 10000
488 1782 10000
24 4135 10000
77 519 10000
404 3950 9999
260 4532 9999
388 1155 9999
373 2777 9999
47 4690 9999
312 4700 10000
370 2342 10000
321 2038 9999
24 4264 10000
56 2604 9999
320 1474 9999
185 1874 9999
438 4991 10000
478 2154 9999
7 4068 9999
216 2576 9999
160 3989 10000
76 1179 9999
127 1773 10000
43 2440 9999
373 1913 10000
230 2216 9999
342 1132 10000
261 4606 10000
210 3439 10000
272 3021 9999
270 1418 9999
142 485 9999
51 1931 9999
43 2721 9999
33 3846 9999
85 4354 9999
188 4982 9999
451 4834 10000
67 3902 10000
86 1784 10000
240 4378 10000
423 1303 10000
484 2436 10000
265 1963 10000
287 3781 9999
415 2696 10000
195 3416 10000
64 3243 9999
52 4916 9999
58 3055 9999
219 811 9999
288 3150 9999
158 3129 10000
472 1447 9999
293 4130 10000
396 841 10000
374 4528 10000
358 3324 9999
411 3447 9999
60 4452 10000
499 1209 9999
276 2598 9999
59 4927 9999
199 4690 10000
347 4562 9999
349 1172 9999
137 4544 10000
453 1240 10000
186 4786 9999
490 4406 10000
395 2457 9999
346 3956 10000
99 3755 10000
12 1695 9999
22 4527 9999
181 1043 9999
422 1857 9999
385 4206 10000
71 3906 10000
14 4711 10000
68 647 9999
88 866 9999
170 4532 10000
141 2229 9999
379 3429 10000
492 3403 9999
22 3290 10000
304 2362 10000
457 3826 9999
123 4450 9999
284 4693 10000
152 2153 9999
424 3353 9999
133 627 10000
293 4245 9999
116 1170 9999
212 2294 10000
329 2316 9999
259 3568 9999
14 2749 10000
425 2746 9999
336 1497 10000
21 4934 10000
40 557 10000
147 212 9999
186 466 10000
180 2721 10000
384 3041 9999
308 1592 10000
434 1166 10000
278 3185 10000
73 204 9999
27 1246 10000
90 4313 10000
446 1911 10000
386 3081 9999
214 3565 10000
316 4957 9999
425 3468 9999
494 3866 10000
164 934 9999
151 2928 9999
475 916 10000
224 4905 10000
340 2103 10000
67 4985 10000
135 4140 10000
192 4259 9999
433 3016 10000
258 1371 9999
145 4178 9999
475 1722 9999
9 860 9999
429 1971 9999
115 1590 10000
145 2001 9999
481 4215 10000
133 4021 10000
89 3994 10000
132 2121 10000
192 2670 10000
188 3052 10000
43 3840 9999
431 4328 9999
435 2681 9999
254 4983 10000
35 1330 10000
25 2002 9999
97 3448 10000
173 2334 9999
231 1126 10000
239 1329 10000
263 3525 10000
104 3028 10000
438 3779 9999
42 2704 10000
129 1978 10000
148 4210 9999
360 363 9999
199 3393 10000
439 915 10000
124 1051 10000
431 3897 9999
17 1253 10000
438 1438 9999
226 2196 9999
405 2228 10000
36 4905 9999
142 1004 10000
339 1253 9999
440 4877 10000
136 1187 9999
59 4577 10000
280 1293 9999
339 4687 10000
61 3942 9999
161 4039 9999
349 4874 9999
273 423 9999
5 1791 10000
105 726 9999
443 3535 9999
230 2543 10000
59 1927 9999
497 792 10000
15 4093 10000
466 2988 9999
386 1451 10000
182 4559 9999
475 3702 10000
405 1423 9999
380 2430 9999
12 2121 9999
364 517 9999
485 2650 10000
428 4346 10000
378 2214 10000
276 357 10000
409 4427 10000
28 4121 9999
142 2366 10000
133 1373 10000
12 2758 9999
363 4199 9999
420 443 9999
203 4234 10000
305 1228 9999
100 4244 9999
203 1399 9999
329 4590 10000
207 1355 9999
103 1755 10000
218 4274 9999
418 781 10000
469 869 10000
245 974 10000
83 3844 10000
449 3274 10000
280 3034 10000
233 1600 9999
239 4093 10000
171 2204 9999
291 2289 10000
416 1781 10000
72 2459 10000
416 719 10000
92 3274 9999
140 4370 9999
230 3589 10000
78 3392 9999
193 650 10000
254 4929 10000
470 3927 9999
453 3347 10000
423 840 10000
363 1079 10000
126 1022 9999
329 2563 9999
54 456 9999
125 890 9999
96 3726 9999
446 2431 9999
63 1197 10000
161 935 9999
460 1886 10000
223 2586 10000
341 4981 9999
304 728 10000
274 4020 10000
487 2469 10000
380 2162 9999
339 611 9999
102 3709 10000
130 1897 10000
429 3784 10000
135 1739 10000
259 1315 9999
253 3185 10000
206 2921 9999
400 4481 9999
454 3064 9999
176 919 10000
230 949 10000
363 4301 9999
201 3052 9999
2 4437 10000
368 697 9999
147 3069 9999
344 4614 9999
120 3211 10000
467 2231 9999
158 4318 9999
488 2649 10000
63 90 9999
313 3694 9999
474 3097 9999
30 1135 9999
82 1525 9999
205 4500 10000
341 609 10000
215 2481 10000
399 3640 10000
78 1320 9999
30 3387 9999
405 3583 9999
489 3934 9999
438 3164 9999
395 4509 10000
400 2960 10000
417 4421 9999
249 1808 10000
161 2491 10000
175 4096 9999
279 4925 9999
113 3002 10000
188 594 10000
318 2684 10000
189 1945 10000
424 585 10000
299 361 10000
394 2807 10000
489 3496 10000
395 687 9999
237 2204 9999
151 2861 9999
29 1672 9999
266 1011 10000
15 2536 10000
48 334 9999
180 2951 9999
59 3490 10000
380 1666 9999
170 1422 9999
66 1086 9999
475 4291 9999
168 3858 9999
450 3659 9999
334 1974 9999
302 2324 9999
407 576 10000
166 2183 9999
216 4297 9999
35 2839 10000
98 1847 9999
344 3021 10000
39 588 9999
306 2925 9999
475 3177 9999
449 1792 10000
352 1018 9999
183 673 9999
293 1160 9999
311 1098 9999
199 4234 10000
387 2767 10000
128 710 10000
386 2492 9999
174 4242 9999
225 2852 9999
280 2320 9999
65 1646 10000
308 2313 10000
56 469 10000
440 4080 9999
462 1550 9999
324 4714 9999
488 3443 9999
302 2236 10000
428 3855 9999
257 2487 9999
73 531 9999
86 4090 10000
270 3315 9999
3 237 10000
452 1252 9999
450 4034 10000
56 2469 9999
356 4682 9999
66 620 10000
177 1446 9999
203 3406 9999
318 3786 9999
241 898 10000
316 2400 9999
325 2721 9999
108 2416 9999
166 235 9999
106 2524 9999
99 2668 10000
20 441 10000
225 1487 9999
126 1244 9999
444 4430 10000
166 4410 10000
168 1258 10000
497 1736 10000
151 4762 10000
268 4464 9999
463 1585 10000
116 4153 9999
36 2353 9999
285 3477 9999
490 3412 9999
311 3860 10000
292 4362 10000
264 3585 10000
473 2185 10000
344 2720 10000
150 1930 10000
259 1892 9999
162 797 10000
57 2666 9999
14 1545 10000
84 3719 9999
174 1450 10000
371 1626 9999
391 1160 9999
296 4319 10000
18 4513 9999
153 1335 10000
14 1745 10000
62 2589 9999
217 2361 9999
215 4210 9999
387 3621 10000
367 2542 10000
379 3863 10000
162 4461 10000
24 2942 9999
5 2270 10000
298 3294 9999
194 1151 9999
438 1473 10000
397 4618 9999
422 4392 10000
331 3619 10000
258 2808 9999
306 4292 10000
90 3975 10000
261 2604 10000
261 1271 9999
499 4428 9999
375 1575 10000
250 2848 10000
410 2964 10000
147 3694 9999
95 1215 9999
276 288 10000
289 3910 9999
269 3813 10000
88 1223 10000
450 1536 10000
273 4461 10000
382 4862 10000
364 5000 9999
457 1768 9999
197 231 9999
379 3912 9999
332 4405 10000
229 1820 10000
1 4821 10000
9 2702 9999
433 1350 9999
6 448 10000
396 4339 9999
417 4575 9999
214 328 10000
426 3068 10000
187 1605 10000
40 2598 10000
27 916 10000
291 3845 9999
176 1934 9999
339 4545 10000
66 1262 9999
349 407 10000
393 3244 10000
169 1440 9999
218 3591 10000
306 4242 9999
36 2737 10000
4 1503 10000
474 4331 9999
437 4089 10000
360 2150 9999
429 1311 9999
403 1379 9999
360 3429 10000
74 598 10000
34 4975 10000
411 654 9999
268 1719 9999
293 4797 9999
411 708 9999
430 1411 10000
299 448 10000
231 1238 9999
348 1236 10000
484 1420 9999
120 411 9999
96 2149 9999
332 1704 10000
433 2922 10000
126 4884 9999
366 2258 10000
84 164 9999
42 4720 10000
221 2103 9999
213 2761 9999
390 2519 10000
424 3577 9999
472 1458 10000
150 2759 9999
236 844 10000
330 1406 10000
232 3775 10000
104 4427 10000
488 4617 10000
134 3886 9999
271 1823 9999
10 1674 10000
22 4536 9999
136 2889 10000
93 3871 10000
372 2740 9999
365 978 9999
54 811 10000
272 805 9999
218 4985 10000
429 3460 9999
254 1230 9999
75 912 10000
59 4058 9999
102 3644 9999
134 1130 9999
22 155 9999
275 2724 9999
181 4523 9999
454 3815 9999
94 1499 9999
124 3245 9999
109 221 9999
137 3525 10000
466 3328 9999
467 4259 10000
494 2277 10000
291 2224 9999
99 2253 9999
46 513 9999
396 4398 9999
77 834 9999
276 4460 10000
396 4027 9999
79 3775 10000
287 1021 10000
493 670 9999
147 666 10000
273 433 10000
203 3031 9999
369 1876 10000
454 3084 10000
155 265 9999
196 4015 10000
97 139 9999
439 1267 10000
405 4001 9999
85 1419 9999
211 4420 9999
293 3700 9999
289 3787 9999
162 3556 9999
494 2816 10000
372 3706 9999
104 2812 9999
255 276 10000
198 919 10000
117 3214 10000
385 3863 10000
398 485 10000
463 623 10000
167 1001 10000
367 491 9999
422 1427 9999
300 3175 10000
265 2570 9999
355 2009 10000
402 3324 10000
248 3561 10000
1 4032 10000
293 2152 9999
326 2722 9999
390 4123 10000
217 1319 9999
281 2846 9999
116 4042 10000
4 4788 9999
60 3824 9999
421 1196 10000
154 2571 9999
359 1521 9999
278 751 10000
470 1064 10000
470 687 10000
374 1300 9999
224 1357 9999
253 3014 9999
483 3169 10000
180 2807 9999
432 3753 9999
477 2463 9999
301 4060 9999
425 3216 9999
395 2349 9999
243 3090 9999
223 4002 9999
197 2349 9999
466 3341 10000
131 3035 10000
6 3825 9999
106 1653 10000
281 3371 9999
88 1314 10000
237 1337 10000
497 3062 9999
67 1456 10000
486 667 9999
432 3369 10000
189 2563 10000
128 873 10000
427 1634 10000
461 1710 10000
50 3949 9999
94 3636 10000
176 3545 10000
200 2672 9999
282 1397 10000
273 4944 10000
451 1508 9999
457 1747 10000
272 716 10000
484 4030 10000
57 3925 10000
431 4727 10000
467 3566 10000
456 4515 10000
321 988 9999
315 2689 10000
306 4386 9999
65 2807 10000
113 673 10000
255 2037 9999
337 4577 9999
27 4963 10000
188 521 9999
26 4703 10000
58 4288 9999
199 1832 9999
48 3148 10000
75 1646 9999
205 2543 10000
484 4202 10000
24 3358 9999
335 4327 9999
174 1642 10000
378 3199 10000
475 1570 10000
403 2465 9999
309 1358 10000
38 2900 10000
477 4088 9999
410 744 9999
155 2543 10000
408 2346 10000
170 3668 10000
341 4018 10000
28 3801 10000
459 3939 9999
167 3720 9999
217 2687 9999
168 1771 10000
25 4467 10000
293 4123 9999
304 3518 10000
146 2202 10000
144 4850 10000
275 3975 10000
279 619 10000
257 888 10000
421 1408 9999
286 3817 10000
35 1086 10000
256 2699 10000
393 1807 9999
281 4060 10000
443 1769 10000
411 4329 10000
95 4976 10000
307 500 10000
284 4110 10000
254 1615 10000
441 1933 10000
470 4415 9999
48 2946 10000
26 1413 10000
422 3353 10000
196 3751 10000
485 3264 10000
134 179 10000
481 2306 9999
446 3374 9999
235 591 9999
347 3291 9999
368 2753 9999
296 2558 10000
354 2143 9999
103 802 10000
455 4060 10000
434 2788 10000
270 893 10000
407 3184 10000
285 1033 9999
29 2967 10000
158 1594 9999
10 634 10000
174 1001 9999
133 4551 10000
319 4829 9999
148 4624 10000
363 4254 10000
112 502 10000
335 1252 10000
190 1063 9999
310 3404 10000
446 2140 9999
405 1938 10000
328 1903 9999
43 4010 9999
475 1149 10000
54 1955 9999
355 1549 10000
387 1034 10000
9 2995 10000
393 1058 9999
377 3621 10000
286 2966 10000
345 4464 10000
68 858 9999
471 2211 10000
440 4156 9999
357 2118 10000
143 3414 9999
183 3238 9999
104 2601 10000
162 923 10000
347 2717 9999
331 1826 10000
240 2198 10000
232 4716 9999
91 4877 9999
303 3713 10000
115 3784 9999
343 1186 10000
191 3295 9999
372 4656 10000
300 529 9999
180 4863 10000
45 3254 9999
225 3066 9999
264 1179 10000
180 728 10000
445 2719 10000
213 389 9999
478 782 9999
180 3753 9999
205 3525 9999
421 3341 9999
439 1110 10000
449 1088 10000
394 2791 9999
176 2446 10000
113 4817 10000
243 4700 9999
477 2579 9999
228 468 10000
462 2188 10000
196 571 10000
244 708 10000
105 1577 10000
309 2527 10000
108 2680 10000
92 1365 9999
43 1022 9999
102 1606 10000
248 310 9999
426 1910 9999
499 676 9999
309 4641 10000
63 2327 9999
250 2984 9999
431 3546 10000
51 4628 9999
109 4378 9999
338 431 9999
467 960 10000
358 2909 9999
200 3369 10000
273 281 9999
136 501 10000
436 2477 9999
416 1919 9999
409 4600 9999
140 2991 9999
110 1833 9999
470 1594 10000
104 1096 9999
21 4569 9999
298 4691 10000
315 4372 9999
76 4473 9999
18 3625 9999
117 4192 9999
325 4632 9999
187 2511 10000
332 615 9999
231 2003 9999
419 3360 9999
278 1464 10000
408 1694 10000
60 3126 9999
199 1221 10000
118 1129 10000
236 1419 9999
295 1462 10000
79 2572 9999
151 4927 10000
55 902 9999
243 2857 9999
180 2061 10000
53 1886 9999
17 2928 9999
351 2474 9999
412 1154 10000
322 2604 10000
27 3251 9999
106 3433 9999
236 1562 10000
68 433 9999
128 3082 10000
289 1956 9999
111 2253 9999
156 4205 10000
29 2619 9999
412 2830 9999
95 2892 10000
408 4204 9999
122 4110 9999
290 3592 10000
16 1821 10000
216 356 9999
207 4031 9999
94 4254 10000
274 3583 9999
134 4477 9999
175 612 10000
88 3002 9999
195 1266 9999
134 2859 9999
317 611 9999
225 3221 9999
270 691 9999
124 3333 9999
466 1888 10000
359 2824 9999
402 2301 9999
274 1037 10000
100 821 10000
247 3411 10000
101 4232 10000
80 3867 9999
275 885 10000
93 2184 10000
474 4752 9999
215 4786 10000
393 4424 10000
263 1362 10000
447 4855 9999
361 1707 9999
459 558 9999
41 804 9999
492 4384 10000
23 4081 9999
29 2423 9999
107 4509 9999
33 4236 10000
87 4475 10000
197 4957 10000
401 1543 10000
43 2647 10000
245 4198 9999
478 1308 10000
32 4622 9999
283 2348 10000
462 1981 10000
338 3442 10000
208 2681 10000
60 2594 10000
239 2691 10000
333 1302 9999
324 3224 9999
323 3017 9999
92 2388 10000
16 877 9999
359 1837 9999
446 1478 9999
394 3979 9999
435 3415 9999
202 297 10000
422 3763 10000
491 1671 9999
235 3439 10000
427 3379 9999
326 4942 9999
16 4962 9999
189 591 10000
73 1356 9999
396 3128 9999
29 2886 9999
94 706 10000
175 4993 10000
209 1869 10000
235 1194 9999
247 1065 10000
7 2090 10000
463 1243 9999
118 2103 10000
436 1075 9999
241 668 9999
166 3311 9999
175 353 10000
458 3090 9999
397 4848 10000
387 3075 10000
266 611 10000
242 1705 10000
85 4964 9999
208 2438 10000
159 2380 9999
306 2446 10000
77 153 9999
210 2634 10000
74 2222 9999
472 3783 10000
340 1657 10000
70 1043 9999
370 522 10000
477 1326 9999
179 435 9999
154 1416 9999
258 4210 10000
460 3055 10000
352 4529 10000
36 1958 9999
347 3286 10000
26 2619 9999
10 2504 9999
325 4920 9999
172 423 10000
284 647 10000
21 970 9999
172 3421 10000
396 647 9999
319 1748 9999
283 1084 9999
26 333 10000
392 791 9999
376 904 10000
277 4814 10000
461 4522 9999
25 3011 10000
267 3374 9999
236 448 9999
386 3504 10000
202 3119 10000
239 3067 10000
59 194 10000
56 3032 9999
392 2012 10000
194 4094 9999
127 520 10000
157 3744 10000
85 2472 10000
304 2861 9999
22 4024 9999
153 4562 9999
78 4637 10000
475 4486 10000
438 3975 10000
271 3349 10000
118 2225 10000
363 2976 10000
257 3201 10000
130 3554 9999
407 529 10000
379 1738 10000
344 4119 10000
357 540 9999
89 3607 9999
183 1686 10000
488 1547 10000
126 1842 10000
254 4834 9999
433 1324 10000
489 3474 9999
467 510 10000
255 653 10000
119 3573 10000
478 1632 10000
57 550 10000
496 3265 9999
1 4738 10000
117 470 9999
287 4328 9999
68 2572 10000
341 744 9999
272 3121 10000
342 1417 10000
86 459 10000
73 2565 9999
120 836 9999
298 3987 10000
127 562 9999
296 3619 9999
8 3765 10000
40 4725 10000
101 1075 10000
12 1190 10000
320 4240 10000
5 4608 10000
467 1078 9999
66 1569 10000
389 4113 10000
23 344 9999
349 412 10000
293 3704 10000
378 2218 10000
146 4067 9999
233 3648 10000
315 4723 10000
369 4096 10000
484 3983 9999
282 2276 10000
89 966 10000
38 3316 10000
66 4658 10000
488 3315 9999
339 2452 10000
97 3493 10000
320 4910 10000
386 2030 10000
379 2212 9999
354 391 9999
383 4333 10000
307 588 9999
79 2120 9999
152 3196 10000
306 4707 10000
80 561 9999
186 1538 10000
475 1642 9999
292 4320 10000
440 2279 10000
216 3122 9999
432 3682 10000
341 1982 9999
59 3631 9999
24 1925 10000
486 3541 10000
326 3447 9999
407 3139 9999
175 3801 9999
192 1501 10000
325 2930 9999
71 2483 10000
281 3973 10000
143 1898 10000
496 972 9999
164 4843 9999
242 3092 10000
52 4412 10000
76 787 9999
411 4748 9999
317 1400 9999
127 2471 10000
268 3663 9999
145 2982 10000
376 3769 10000
98 3087 10000
495 4632 9999
197 1954 10000
496 4273 9999
103 982 9999
465 2215 10000
411 630 9999
482 541 9999
489 496 9999
244 1974 10000
433 1094 10000
335 4888 10000
249 2197 10000
334 1572 10000
71 222 10000
277 2087 10000
416 4663 10000
218 1092 9999
452 3615 9999
214 3743 10000
34 1153 10000
422 3575 9999
78 2384 9999
364 4613 9999
154 2383 9999
9 268 9999
334 2870 9999
224 4357 10000
217 1610 9999
486 1370 9999
139 1468 9999
268 2688 9999
79 3734 9999
136 4560 9999
280 3995 9999
26 849 10000
364 2043 10000
421 841 10000
332 4747 10000
359 2187 9999
294 3890 9999
367 4720 9999
455 3020 10000
108 4564 10000
207 1190 10000
460 4856 10000
226 932 10000
189 2758 9999
143 858 9999
95 357 10000
292 2923 9999
172 2816 10000
152 2256 10000
43 434 9999
113 3951 10000
391 530 10000
177 3016 10000
423 2347 10000
379 3414 10000
214 922 9999
299 2099 9999
297 1445 10000
264 2807 9999
218 496 10000
285 4424 9999
285 2373 10000
260 4523 10000
87 3957 9999
343 3980 9999
234 2697 10000
83 989 10000
444 500 9999
241 1238 9999
410 3804 10000
345 940 10000
466 3477 9999
67 4776 9999
249 4002 9999
189 3632 10000
279 492 9999
301 2338 10000
236 3010 9999
97 1589 9999
338 1051 9999
17 395 9999
204 2106 10000
468 3299 9999
7 1816 10000
474 526 9999
414 562 10000
195 4879 9999
214 3902 10000
44 2676 10000
477 747 10000
284 1828 10000
252 4351 10000
4 4095 10000
108 1736 9999
390 2053 10000
145 3566 10000
350 804 9999
193 2898 10000
310 4959 10000
278 1715 10000
305 3147 9999
215 4125 10000
18 597 9999
159 4021 10000
254 4270 9999
205 3442 10000
124 2317 10000
120 2501 9999
342 4459 10000
172 3878 9999
396 3522 9999
331 3562 10000
59 2648 10000
148 4584 9999
165 4272 10000
243 1816 9999
414 1200 10000
5 4332 9999
229 254 9999
220 1747 9999
463 495 10000
390 1646 9999
474 2253 9999
184 2708 10000
26 4839 10000
464 1578 9999
266 638 9999
347 3267 9999
277 3388 9999
7 2240 9999
349 4647 10000
108 351 9999
208 1062 10000
341 2073 10000
283 4077 9999
345 1597 10000
495 3721 10000
487 2533 9999
256 3346 9999
381 3326 9999
473 2944 9999
32 437 10000
379 4858 9999
338 1163 10000
90 4203 9999
274 455 10000
159 4600 10000
180 4590 10000
90 708 10000
282 537 10000
430 1738 9999
420 2302 9999
108 1543 9999
334 4698 9999
31 299 9999
327 377 9999
278 3340 10000
101 893 9999
307 2790 10000
38 3327 9999
360 2483 9999
475 2754 10000
428 1024 9999
449 2687 10000
4 2028 9999
120 1658 10000
491 1068 10000
110 1269 9999
170 294 10000
54 727 9999
224 252 10000
16 4732 10000
377 4194 10000
110 3709 9999
167 4621 9999
292 4661 10000
280 3662 9999
307 1208 9999
262 4296 9999
185 4554 10000
220 1924 10000
272 3234 10000
418 1830 10000
342 2551 9999
257 1357 9999
477 3002 9999
195 2459 9999
267 3237 10000
45 4164 10000
217 2393 9999
240 4212 10000
228 2785 10000
497 2868 9999
411 2133 9999
219 3904 10000
306 2025 9999
382 2830 9999
427 4548 9999
406 4240 9999
323 1889 10000
420 2285 10000
263 404 10000
2 4683 10000
406 4460 10000
455 3447 9999
299 4232 10000
434 2000 10000
444 2422 9999
473 2955 9999
132 163 10000
202 431 9999
140 550 10000
330 4732 10000
174 4747 9999
364 834 10000
135 1882 9999
22 3696 10000
488 785 10000
360 2191 10000
275 1229 9999
384 4765 9999
499 2336 9999
246 1877 9999
410 3041 9999
229 3582 10000
181 1044 9999
69 3997 10000
231 3868 10000
116 1746 10000
320 1570 9999
273 1710 9999
444 1246 9999
201 2589 9999
438 1822 10000
255 2420 10000
399 562 9999
190 3240 10000
395 4356 9999
390 5000 10000
131 3486 10000
358 1151 9999
431 4827 9999
87 1909 9999
204 4531 9999
349 1038 10000
72 2161 9999
33 3171 10000
21 2251 9999
258 1128 10000
335 2472 10000
196 4000 9999
171 2528 9999
177 840 9999
456 3092 9999
335 4365 9999
258 4880 9999
493 876 10000
34 2693 9999
9 1689 9999
436 1887 10000
390 2096 10000
205 4254 10000
73 571 10000
379 2634 9999
68 2207 10000
435 3957 10000
163 3479 10000
63 2531 10000
388 2245 9999
450 523 10000
19 3415 10000
152 877 10000
367 1816 10000
362 4826 9999
317 436 10000
86 4790 9999
173 1491 10000
240 4297 10000
425 3315 10000
130 4076 10000
404 1017 9999
89 3446 9999
255 4981 10000
484 4094 10000
208 3331 9999
400 3405 9999
264 3801 9999
289 2653 9999
400 3385 10000
463 3523 9999
44 166 10000
457 1694 9999
100 1632 9999
406 2860 9999
85 962 10000
113 1298 10000
43 3663 9999
177 2061 9999
210 3085 9999
428 1899 9999
144 329 10000
332 3499 10000
29 2503 10000
123 4361 9999
285 1709 9999
373 461 9999
150 4786 10000
77 691 10000
402 770 10000
381 4798 10000
154 3654 9999
454 3613 9999
200 4151 10000
216 4291 9999
329 1632 10000
275 4172 9999
230 2478 10000
308 3231 9999
86 1514 9999
9 696 10000
46 1565 9999
38 508 9999
401 3282 10000
371 984 9999
265 4891 10000
243 1968 10000
316 500 10000
228 3680 10000
434 4729 10000
407 1691 10000
63 596 10000
94 2182 9999
248 1847 9999
316 3294 9999
187 2321 9999
263 666 10000
438 4727 9999
161 226 10000
46 1668 9999
51 4235 10000
161 165 10000
167 3195 10000
1 3802 9999
218 3306 9999
33 4804 10000
377 2850 9999
267 2255 9999
102 303 10000
473 2564 10000
147 867 10000
416 4952 10000
20 780 9999
113 1736 10000
280 289 9999
187 3600 9999
144 887 10000
101 2444 9999
462 705 10000
368 4922 9999
442 1163 10000
18 3990 10000
63 69 10000
383 4249 9999
286 3830 9999
418 434 9999
470 2745 10000
94 2411 9999
398 2053 9999
93 1527 10000
166 4706 10000
308 2616 10000
252 893 10000
45 4901 9999
299 3136 10000
217 2852 10000
109 1391 10000
388 4172 10000
359 405 9999
117 3949 9999
470 3644 10000
289 2853 10000
394 2717 9999
466 2464 9999
190 2948 10000
145 493 10000
329 3330 9999
479 2869 10000
341 3582 10000
419 673 9999
361 3303 10000
403 3561 10000
127 4106 10000
308 2978 9999
475 1217 9999
267 395 10000
299 4462 9999
207 3894 9999
354 600 10000
457 2289 10000
257 1088 10000
219 490 10000
277 1638 10000
112 3263 10000
156 4025 9999
478 2806 10000
131 2381 9999
91 3255 10000
494 2447 10000
313 3606 10000
316 4607 10000
311 312 9999
42 342 9999
493 1122 10000
366 4196 10000
307 2966 9999
347 3748 9999
340 4256 9999
84 2793 9999
196 1864 9999
128 1759 9999
158 4845 10000
35 888 9999
25 2603 9999
181 3180 10000
119 1490 9999
212 1322 9999
138 146 10000
246 2169 9999
111 2291 9999
267 1566 10000
158 3830 9999
71 3004 9999
111 446 9999
4 4283 9999
218 4822 10000
31 1188 9999
368 3871 10000
284 2630 10000
440 2962 9999
318 3953 10000
386 4024 9999
127 1059 9999
21 141 10000
147 2517 10000
450 1737 10000
392 2969 9999
41 4653 10000
367 2673 10000
241 4353 9999
127 3118 10000
279 4174 10000
285 2825 10000
99 922 9999
465 3177 10000
447 951 9999
498 4315 10000
347 2311 10000
440 1318 9999
38 97 9999
71 3654 9999
405 2129 9999
400 1981 10000
219 4469 10000
409 3279 10000
382 4950 10000
239 349 10000
348 946 10000
454 3344 9999
158 201 9999
198 3125 10000
89 1423 10000
160 3875 9999
164 1200 9999
21 3096 9999
36 196 9999
281 1621 10000
467 1782 10000
229 1785 10000
26 282 9999
141 3984 9999
244 4928 9999
225 2678 10000
229 3383 10000
345 892 10000
33 2598 9999
421 4371 9999
146 3887 10000
270 4800 9999
47 2720 9999
110 1820 10000
307 2543 10000
431 1063 10000
70 2105 9999
230 2830 10000
224 2678 10000
444 3308 10000
175 3491 9999
102 3521 9999
55 187 10000
77 4936 10000
396 1058 10000
232 1082 9999
65 732 10000
86 4230 9999
28 2559 10000
396 4799 9999
445 2124 10000
339 1634 9999
394 2925 9999
366 2431 9999
444 4605 9999
136 4022 10000
280 3905 9999
107 3545 10000
343 3655 10000
495 3033 10000
419 1661 10000
52 3520 9999
16 3757 9999
487 1478 10000
6 3634 9999
222 690 10000
120 2880 9999
369 3234 10000
403 4454 10000
396 419 9999
222 916 9999
233 3062 10000
465 2142 9999
128 4555 9999
407 2653 9999
187 2745 10000
96 2938 9999
236 2404 9999
18 2626 9999
302 4829 10000
347 1044 9999
46 2511 10000
94 4724 10000
81 4334 9999
31 3723 10000
343 4787 10000
186 788 10000
247 759 9999
260 4416 9999
483 4828 9999
264 1048 10000
455 3292 10000
381 2255 9999
273 4176 10000
261 3378 9999
321 3577 10000
383 1509 9999
257 444 10000
456 3103 9999
184 4305 9999
195 4098 10000
130 3195 10000
310 4248 10000
94 847 10000
209 4746 9999
103 3286 10000
29 2068 9999
194 2697 9999
437 4188 10000
282 2256 10000
87 2211 10000
182 1079 10000
144 4114 9999
264 2423 10000
294 1495 10000
293 4339 10000
296 1405 10000
475 4568 10000
189 3163 10000
202 1302 10000
138 1632 9999
484 4287 10000
279 4637 9999
457 2224 10000
82 2817 9999
358 820 10000
233 1768 10000
86 4889 10000
388 4633 10000
492 968 10000
53 2439 9999
95 2560 10000
188 1546 9999
229 970 9999
238 1442 9999
493 2731 10000
211 4399 10000
364 4527 9999
22 2142 9999
143 449 9999
396 1511 10000
485 791 10000
329 393 9999
106 1668 10000
366 907 9999
151 1240 9999
208 2704 10000
428 1647 10000
360 954 10000
28 579 10000
18 43 10000
310 2110 9999
401 1251 10000
6 3352 9999
418 2406 10000
493 625 9999
254 335 9999
12 4022 10000
96 4137 9999
197 4708 10000
31 1782 9999
332 2913 9999
391 707 10000
386 2695 10000
422 1602 10000
493 842 10000
283 348 10000
18 3127 9999
146 775 10000
344 1918 10000
158 3954 9999
256 974 10000
66 4827 10000
371 4283 10000
35 3865 9999
317 3687 9999
210 3793 10000
54 4788 9999
402 707 10000
483 2939 9999
447 1531 9999
220 3223 9999
379 3010 10000
210 2605 10000
224 2898 10000
335 1562 9999
162 3412 10000
158 1998 10000
116 1389 9999
328 3116 10000
134 3487 10000
361 2844 10000
184 2745 10000
25 4203 9999
240 4647 10000
422 1430 10000
76 4963 10000
367 4396 9999
269 4419 9999
46 4063 10000
248 485 10000
429 2532 10000
450 1588 10000
314 3431 9999
477 2631 9999
343 1167 9999
3 1572 10000
382 4371 10000
111 1758 10000
123 1144 9999
239 3267 10000
122 3496 9999
23 708 9999
478 2530 10000
319 4144 10000
137 2663 9999
497 4382 10000
380 4481 10000
306 2261 9999
221 3604 10000
161 4267 9999
425 4215 9999
458 3749 9999
113 4188 10000
345 1284 9999
483 4467 10000
117 1875 10000
384 3861 9999
112 3069 10000
385 1824 10000
358 3121 10000
246 2637 9999
57 2336 10000
74 3266 9999
247 4818 10000
163 3306 9999
449 2157 10000
125 2395 10000
478 632 9999
403 3965 10000
192 4123 9999
278 2837 10000
51 2335 10000
292 655 10000
9 72 10000
208 1863 10000
68 3326 10000
437 2294 10000
497 2480 9999
366 2419 9999
367 2461 10000
210 785 10000
76 3592 10000
499 4472 9999
343 3877 9999
235 2739 10000
103 2439 10000
94 4258 10000
231 3893 10000
495 4789 9999
481 2397 10000
58 1507 10000
266 363 10000
360 1904 9999
51 4477 9999
350 4032 9999
75 2033 9999
385 3206 10000
167 3276 10000
224 4277 10000
429 1789 9999
256 2367 10000
400 3798 10000
431 2039 9999
340 2677 10000
75 3999 9999
70 2625 10000
100 1481 9999
353 673 10000
157 1645 10000
161 4194 9999
40 4838 10000
41 2562 9999
122 934 10000
243 3987 10000
480 1959 10000
134 3326 10000
416 1019 10000
138 3662 10000
150 2898 9999
386 4273 10000
473 899 10000
4 4770 10000
152 3239 10000
365 3222 9999
30 932 9999
233 868 10000
140 1419 10000
75 4142 9999
75 2430 10000
206 2321 10000
346 369 9999
298 1890 10000
276 2147 9999
346 3481 9999
74 1233 9999
419 2003 10000
206 3191 10000
6 764 10000
136 4795 10000
452 1151 10000
287 4226 9999
275 4859 9999
289 4380 9999
157 1946 9999
14 899 10000
154 320 10000
468 4489 10000
147 2186 10000
41 4640 10000
155 2458 10000
383 1554 9999
213 4070 9999
455 4411 10000
379 2230 9999
311 3911 10000
223 3969 9999
142 2620 10000
211 2525 10000
158 4846 10000
326 2365 10000
16 4065 9999
486 4279 10000
135 1155 9999
293 2697 9999
259 3567 10000
215 3512 10000
78 1404 10000
335 1976 9999
367 3133 10000
436 4761 9999
17 1139 9999
311 2027 9999
144 3959 10000
296 2873 9999
369 2149 10000
376 1672 9999
98 4656 9999
468 1259 10000
160 2951 10000
123 1647 9999
296 1344 10000
464 3266 10000
141 3027 10000
172 1639 9999
59 3863 10000
34 2655 10000
416 3567 9999
362 1248 10000
55 599 9999
253 1180 9999
172 4485 10000
381 2155 9999
320 3138 10000
474 3327 10000
457 2970 9999
288 1378 10000
432 3200 9999
195 2163 9999
471 1665 9999
179 3370 10000
185 3808 9999
403 1394 10000
310 2168 10000
52 3414 9999
18 3109 10000
264 3861 9999
286 3173 10000
226 3517 9999
301 3205 10000
135 1956 10000
317 1870 10000
279 4479 10000
53 103 9999
289 309 9999
366 2524 10000
360 1106 10000
341 4087 9999
164 3057 10000
89 4415 9999
293 2743 10000
370 3737 10000
479 3228 10000
351 3030 9999
233 1125 9999
371 1435 9999
164 1684 9999
359 3182 10000
163 694 9999
13 1873 10000
290 3445 9999
261 2182 9999
356 4678 10000
424 1865 9999
247 1671 10000
18 3829 10000
370 2254 9999
447 3837 10000
77 4946 10000
489 2354 10000
56 735 9999
204 4446 9999
262 1488 10000
445 3753 9999
73 2467 10000
247 4874 9999
195 2715 9999
450 4948 9999
131 1342 9999
174 4792 10000
371 1380 9999
208 287 9999
246 3936 10000
349 964 10000
123 391 9999
205 328 10000
285 3652 9999
352 3510 10000
54 2739 9999
386 4976 9999
93 776 9999
87 4422 10000
237 294 10000
78 3165 10000
125 4494 10000
58 618 10000
200 624 10000
39 311 9999
377 4188 9999
474 2690 9999
306 2605 10000
148 1664 10000
153 3008 10000
296 2039 10000
279 3643 9999
178 1507 10000
234 1795 9999
285 4055 9999
149 2163 10000
349 2311 9999
368 1274 10000
128 3079 10000
282 2931 10000
467 1228 9999
426 4710 10000
407 4802 9999
437 4332 10000
321 4947 10000
211 1548 10000
400 2857 10000
83 835 10000
334 2735 9999
440 1610 10000
294 2156 10000
59 1832 9999
83 2075 9999
2 3850 9999
315 2238 9999
452 4370 9999
487 1164 10000
462 2402 10000
351 2903 9999
124 4173 10000
326 4834 10000
412 4736 10000
218 2972 10000
73 1791 9999
226 2004 10000
487 4829 10000
236 2277 9999
289 1918 10000
326 3081 9999
352 1122 10000
449 3114 10000
394 4164 9999
485 973 9999
39 1687 10000
353 2852 9999
478 510 10000
455 3811 9999
300 4737 10000
482 4431 9999
167 4113 9999
494 4665 10000
242 2895 9999
119 2747 10000
261 3970 10000
220 3755 10000
249 4864 9999
500 3646 10000
294 627 9999
467 4443 10000
252 2007 10000
230 1841 10000
497 4771 10000
86 566 10000
257 4587 9999
338 1545 9999
133 2160 9999
484 3959 10000
398 3298 9999
328 1978 10000
177 4412 10000
116 4674 10000
39 2629 10000
307 2958 10000
455 3926 9999
134 3583 10000
430 2701 9999
172 1603 9999
29 329 9999
79 4989 10000
247 3996 9999
62 160 9999
51 1726 10000
161 1403 10000
186 682 10000
54 1380 10000
383 4751 9999
415 4273 9999
112 3361 10000
333 1114 9999
11 733 10000
225 4605 10000
481 3336 9999
7 153 10000
219 4138 10000
217 2938 9999
385 1560 10000
399 2624 10000
206 2903 10000
221 656 9999
434 2350 10000
426 4229 10000
179 1952 10000
249 2357 9999
273 1976 9999
451 2114 10000
12 290 9999
294 3344 9999
209 736 10000
52 145 9999
260 1835 10000
113 855 9999
11 1549 9999
435 3466 9999
481 1388 10000
230 3573 10000
169 1986 10000
61 1078 9999
252 4418 9999
144 3001 10000
12 2026 9999
339 1017 9999
80 3578 10000
28 2048 9999
208 362 10000
182 3242 10000
95 179 10000
51 4544 10000
36 3628 10000
410 1887 10000
370 4005 10000
290 4589 10000
160 4762 9999
211 1768 9999
32 3579 9999
179 4448 9999
37 1808 10000
481 2620 10000
123 2681 9999
48 4328 10000
155 4908 10000
163 4750 10000
263 903 10000
79 1138 9999
47 2412 9999
391 4510 10000
308 3471 9999
205 3682 9999
268 3612 9999
274 4694 10000
251 2967 9999
313 4968 10000
481 2940 9999
86 4943 9999
343 3169 9999
147 222 10000
36 4662 9999
290 1115 9999
83 2330 10000
403 2856 9999
357 3079 10000
476 2058 10000
287 3852 10000
433 3874 10000
118 693 10000
284 4582 9999
42 3127 9999
165 3372 9999
131 4337 9999
310 2112 9999
121 4752 10000
239 3608 9999
352 1491 10000
498 1918 9999
191 1806 9999
464 4067 9999
317 4266 10000
385 427 9999
233 544 9999
419 483 10000
309 2244 10000
377 1417 9999
279 1594 10000
111 4034 9999
369 584 9999
28 4261 10000
135 2977 9999
400 1401 9999
182 3440 10000
418 2798 10000
85 4015 10000
433 3951 10000
124 1498 9999
226 1558 10000
44 2532 9999
57 2022 9999
290 4372 9999
73 430 10000
268 3387 9999
438 2004 10000
114 3557 10000
134 2649 9999
430 1951 9999
198 4705 9999
485 4945 9999
378 2297 10000
213 1687 9999
180 894 9999
166 4707 10000
374 1984 10000
245 4210 9999
252 4558 10000
449 4881 10000
52 3356 10000
56 2055 10000
134 1670 9999
244 4099 10000
327 3376 10000
419 4145 9999
469 2834 9999
332 4684 9999
225 2494 10000
66 1313 10000
257 3000 10000
215 1966 10000
365 1109 10000
408 2267 9999
359 1333 10000
482 2160 10000
162 1720 9999
270 532 10000
57 674 10000
216 1581 9999
279 2791 9999
395 2284 9999
31 2441 10000
368 2233 10000
383 935 10000
269 1700 10000
445 4044 10000
94 1946 9999
284 4105 9999
350 739 10000
365 1923 9999
219 3335 10000
410 432 9999
412 1588 10000
314 732 10000
16 1097 9999
493 4475 9999
297 4201 9999
147 1654 9999
494 1383 9999
217 3675 9999
444 4167 9999
39 830 9999
65 3943 9999
219 3934 10000
109 703 10000
255 2483 10000
137 3331 9999
261 3129 9999
251 4823 10000
463 2938 9999
168 2121 9999
36 3087 9999
310 2322 10000
184 2934 10000
330 3713 10000
187 2956 10000
284 4503 10000
232 3613 10000
493 1216 9999
421 4741 10000
188 2406 10000
315 324 10000
22 3523 9999
277 2116 9999
308 4876 9999
362 1846 9999
485 4050 9999
337 3577 9999
487 2657 10000
313 574 10000
342 3451 10000
291 740 10000
266 1159 10000
189 454 9999
62 3342 9999
429 4182 9999
467 2754 9999
71 191 9999
218 2525 9999
63 4159 10000
475 4125 9999
426 906 10000
8 498 9999
411 1052 9999
392 947 9999
301 1516 10000
14 3837 9999
256 4327 10000
465 3282 9999
127 1595 10000
144 215 10000
216 2874 9999
197 533 9999
363 1451 9999
181 3794 10000
132 2478 10000
253 3803 10000
462 3665 10000
364 2072 10000
433 846 10000
211 895 9999
345 1760 9999
474 3554 9999
498 4539 10000
201 2128 10000
326 3891 10000
480 3894 10000
110 2899 10000
64 4145 10000
3 1263 9999
361 1653 9999
9 2836 10000
385 3960 10000
272 577 10000
29 425 9999
410 1653 10000
160 4837 9999
387 1464 9999
132 2377 9999
336 2728 9999
185 3276 9999
488 1229 10000
320 1580 10000
438 3553 9999
93 708 10000
117 1601 10000
46 2390 9999
104 2380 9999
270 4327 9999
465 4749 10000
416 2259 10000
172 2380 10000
402 1694 10000
207 1385 10000
64 2418 10000
45 2550 10000
296 3409 10000
126 1030 9999
357 801 9999
229 235 10000
338 3341 10000
472 1817 9999
384 3719 9999
354 2505 10000
327 3280 9999
38 2294 9999
351 4815 9999
433 2810 10000
168 4969 10000
94 4175 10000
165 2254 10000
326 3779 10000
424 1525 9999
61 4832 9999
378 2645 10000
222 2630 10000
67 4379 10000
55 3973 10000
252 588 9999
49 4170 9999
199 852 10000
122 1795 10000
42 2034 10000
318 4182 10000
423 4619 9999
336 4226 9999
177 613 9999
306 1258 9999
371 1193 10000
432 2914 10000
476 3374 9999
332 2004 10000
475 3428 9999
374 1534 10000
378 2351 9999
128 2560 9999
124 4763 9999
223 3569 9999
404 2059 9999
459 4071 9999
426 3266 9999
451 1075 10000
403 4174 10000
487 706 10000
277 3324 9999
427 640 10000
371 4969 9999
133 838 10000
223 2081 9999
279 631 10000
495 2052 9999
279 2351 9999
87 1910 10000
407 2630 9999
103 3025 10000
340 3310 9999
166 3841 9999
466 4495 9999
69 1589 9999
320 1028 9999
11 2551 9999
167 3055 10000
490 4841 9999
264 2629 10000
228 4209 10000
383 3064 9999
438 463 9999
269 803 9999
60 1744 9999
162 2949 9999
278 497 9999
72 2451 9999
124 1446 10000
358 2431 10000
149 2969 10000
495 680 9999
141 1249 10000
342 4931 10000
465 1342 10000
29 1432 9999
325 1419 9999
254 3100 9999
59 4745 9999
305 450 9999
302 1800 10000
6 2819 9999
249 3602 10000
432 771 10000
462 1189 9999
66 1034 10000
399 4147 9999
335 1806 10000
216 505 9999
284 1833 10000
375 1425 10000
214 4404 10000
233 4681 10000
178 3421 10000
142 3274 10000
331 3814 10000
395 3542 9999
432 3432 9999
130 1876 9999
109 2263 9999
174 3289 9999
169 2054 9999
345 2647 9999
394 3554 9999
499 1770 10000
374 2001 10000
48 1526 10000
151 4921 9999
53 3983 10000
468 2429 10000
300 2420 9999
117 378 9999
193 3979 9999
342 2664 9999
399 2961 9999
191 4057 10000
412 588 10000
34 3812 10000
106 1419 10000
456 2442 10000
18 3715 10000
42 2446 9999
15 3796 10000
6 704 9999
430 1875 9999
488 802 10000
293 4327 10000
276 3430 10000
123 3438 10000
498 2385 10000
135 511 10000
349 4847 9999
199 832 9999
309 4214 9999
412 4627 10000
100 2745 10000
66 766 9999
196 3963 10000
498 1217 9999
313 2518 9999
124 1469 9999
161 2128 9999
31 995 9999
141 1724 9999
467 749 10000
264 3701 10000
490 1442 10000
375 3289 9999
225 2195 9999
30 4706 9999
6 4790 9999
316 1331 9999
453 1635 10000
186 4238 9999
303 1146 9999
175 4110 10000
392 3960 9999
125 683 9999
263 2264 9999
467 1948 10000
6 3266 9999
116 978 10000
372 739 9999
150 2113 10000
433 960 10000
3 4695 10000
350 2125 9999
107 1681 10000
185 331 9999
209 2979 10000
143 245 9999
401 441 10000
307 2320 10000
364 4071 10000
378 2721 9999
20 2616 9999
421 3370 9999
103 981 9999
126 1106 9999
484 1158 10000
154 1416 9999
109 3972 10000
336 4030 10000
120 4134 10000
245 2363 10000
185 4703 9999
246 3750 10000
377 2917 9999
237 4461 9999
169 4416 9999
311 3814 9999
136 3050 10000
64 1182 9999
490 1533 9999
494 1362 10000
187 542 10000
187 568 10000
294 3159 10000
165 3073 10000
198 4683 9999
64 1744 10000
407 3014 9999
264 4676 10000
499 1583 9999
370 1657 10000
429 2754 10000
203 3928 9999
224 3582 10000
217 4767 9999
188 2928 9999
407 953 10000
324 2562 9999
26 4956 10000
105 4276 9999
156 687 9999
145 2834 10000
126 3990 10000
148 1507 9999
231 973 10000
58 3895 10000
312 3481 10000
383 4619 10000
311 2773 9999
392 3507 9999
129 4383 9999
203 504 9999
225 589 9999
50 1456 10000
452 2724 10000
494 3612 10000
162 1372 10000
371 1853 10000
246 398 10000
266 2573 10000
447 2211 10000
117 3020 9999
371 3971 9999
162 3465 10000
294 3000 10000
410 3928 9999
384 3369 9999
479 4018 9999
241 2706 9999
111 4009 10000
180 620 9999
251 4259 10000
135 4893 9999
285 1204 9999
379 4573 10000
218 800 10000
8 4441 9999
108 1782 9999
230 4439 10000
429 494 10000
486 3917 9999
461 2427 9999
164 2370 10000
473 3940 10000
20 2268 9999
457 1650 9999
263 4773 9999
81 4400 9999
431 1945 10000
10 3289 9999
177 4674 10000
188 1929 10000
213 3017 10000
41 567 9999
318 4155 10000
322 4615 10000
363 1928 9999
419 3566 10000
394 2798 9999
163 2304 10000
97 1457 9999
23 3613 9999
2 3436 10000
72 3021 9999
402 2811 9999
461 4621 9999
441 3091 9999
373 827 9999
366 4466 9999
48 3175 9999
50 509 10000
96 4357 10000
280 2502 9999
47 584 10000
17 663 10000
182 2746 10000
139 2600 9999
259 1941 10000
195 1199 9999
109 2089 10000
265 3941 10000
192 3578 10000
71 4983 10000
307 4088 9999
328 3395 10000
335 3252 10000
65 1870 9999
146 4340 10000
43 1054 10000
6 1492 10000
370 1408 9999
73 3105 9999
173 3320 9999
86 3713 9999
56 3041 9999
155 2251 9999
237 3358 9999
160 561 9999
224 1261 9999
491 2848 10000
178 4885 10000
73 1988 9999
169 2813 9999
247 650 9999
273 550 9999
216 330 10000
279 3879 9999
253 1041 10000
20 4888 9999
134 806 9999
8 4710 9999
28 4015 9999
441 2781 10000
358 1601 10000
240 452 10000
325 1573 10000
126 3771 9999
316 4841 10000
60 4129 10000
9 1372 10000
64 3553 9999
217 3727 9999
253 2705 10000
55 592 10000
332 3476 9999
85 1036 10000
262 2265 9999
259 1852 10000
233 2835 9999
310 4672 10000
397 2841 10000
358 1340 9999
109 2291 10000
327 3476 9999
109 2451 9999
423 4634 10000
332 4392 10000
304 891 9999
392 2543 9999
303 4090 9999
257 823 9999
305 3648 9999
464 4542 10000
348 3189 10000
500 1148 10000
309 1610 10000
453 4891 10000
352 3738 10000
392 4318 9999
183 1874 10000
413 4141 10000
170 1960 10000
378 4747 9999
459 3358 10000
148 1016 9999
343 4084 9999
4 1744 9999
450 2744 10000
31 4059 10000
406 3681 9999
254 2979 9999
33 3595 9999
245 4358 9999
379 2381 10000
21 3249 10000
199 2742 10000
226 2052 9999
440 4168 9999
41 449 10000
488 1131 9999
328 3634 10000
91 2877 10000
371 2155 9999
357 3674 10000
127 1547 10000
108 3794 9999
236 3510 9999
196 4100 10000
56 1150 9999
430 4944 10000
207 1800 9999
225 961 10000
90 4562 9999
339 3123 9999
190 3631 10000
35 3171 10000
398 3030 10000
356 1595 10000
295 2082 9999
96 764 9999
170 3303 10000
257 3556 10000
208 3974 10000
450 2750 9999
89 2135 10000
481 1138 9999
217 1553 9999
186 2417 9999
430 4940 9999
337 1548 9999
305 4945 9999
457 1473 9999
498 2687 10000
302 4891 10000
32 4953 10000
68 950 10000
224 3755 9999
5 1967 10000
192 2737 10000
396 4319 10000
49 2365 9999
244 4676 10000
255 1481 9999
479 2643 9999
247 453 9999
348 369 10000
379 4830 9999
192 4936 10000
214 462 10000
72 2330 10000
159 602 10000
290 4671 10000
181 2469 9999
316 665 10000
417 2206 10000
288 4361 10000
308 4551 10000
211 2838 10000
41 1565 10000
63 2939 10000
228 1146 10000
79 3992 10000
450 3279 10000
342 1952 9999
272 1365 9999
184 1545 9999
68 1650 10000
5 2257 10000
70 579 10000
212 3789 9999
125 2164 10000
308 1795 10000
444 1269 10000
402 1608 9999
131 4378 10000
386 1484 10000
448 3934 10000
354 2905 9999
480 884 9999
306 1129 9999
295 583 10000
250 778 9999
19 4745 10000
97 3872 10000
455 1620 10000
217 3691 10000
491 3493 10000
427 1505 10000
434 649 9999
255 2062 10000
300 3875 10000
292 1051 10000
321 2327 9999
66 3515 9999
444 3240 9999
222 4015 10000
432 3504 9999
100 2720 10000
148 4607 10000
35 2632 9999
104 2952 10000
426 1271 10000
231 2789 10000
462 4672 9999
82 4427 9999
112 1437 10000
313 693 10000
109 3550 10000
273 4032 10000
219 2112 10000
306 748 9999
65 149 9999
417 4948 9999
378 4965 9999
212 1075 10000
270 4960 10000
344 4711 9999
290 4614 9999
267 414 9999
456 1657 10000
271 3739 9999
425 2970 9999
274 631 9999
359 3568 9999
188 539 10000
168 3405 9999
75 2175 9999
309 4061 9999
59 321 10000
234 254 9999
337 2398 10000
289 1684 10000
213 4182 9999
178 903 9999
163 2274 10000
92 4427 10000
385 849 10000
289 4207 10000
364 3752 9999
95 464 10000
266 1301 10000
304 1950 9999
225 4433 9999
429 2511 9999
192 4585 9999
287 2924 9999
258 1314 9999
190 1960 10000
310 1318 10000
334 3027 10000
474 1511 10000
273 1789 9999
423 2579 9999
198 2239 10000
435 3973 10000
477 2994 10000
208 1543 9999
384 2889 9999
423 4700 9999
374 1432 10000
227 2454 10000
425 2980 10000
23 1088 10000
81 3293 9999
260 3245 9999
240 1537 9999
7 3371 10000
468 1920 9999
486 2206 9999
476 4456 9999
448 1490 10000
387 582 10000
5 2340 9999
113 2814 10000
19 1900 9999
172 4498 9999
142 514 10000
397 1093 10000
284 4277 10000
26 1235 9999
185 2757 9999
76 2965 9999
108 4633 10000
260 4095 9999
241 2291 9999
29 2515 10000
470 621 10000
192 2868 10000
281 1390 10000
92 1980 9999
476 4864 9999
184 308 9999
169 2799 10000
205 561 9999
261 1357 9999
390 3268 9999
144 4091 9999
78 2765 10000
456 1747 9999
46 2290 10000
214 2066 10000
73 4643 9999
183 1074 9999
330 3330 9999
54 2511 9999
184 3983 9999
442 4130 10000
67 1712 9999
440 729 9999
497 1395 10000
463 4611 9999
348 3755 10000
349 2877 9999
408 1953 9999
235 1709 10000
260 1788 9999
464 4655 9999
42 3451 10000
436 2143 9999
248 3306 9999
257 2151 9999
487 3917 9999
467 2426 9999
250 2770 9999
325 3101 10000
40 2123 9999
49 1064 10000
449 4523 10000
424 3451 10000
228 2349 10000
345 2090 9999
194 3722 9999
218 699 10000
144 2562 9999
422 4908 10000
310 1041 9999
323 4561 10000
325 3538 10000
490 3372 10000
147 4705 9999
399 2658 10000
435 1807 9999
492 4494 10000
252 1429 10000
95 656 9999
25 3222 10000
351 564 10000
202 4326 9999
366 4599 10000
156 3510 9999
334 2407 9999
272 4629 10000
463 680 10000
406 805 9999
148 3850 9999
185 4064 10000
78 2954 9999
412 1098 9999
492 736 9999
79 4380 9999
304 3190 10000
57 2369 10000
164 3901 10000
51 3592 10000
473 616 10000
243 1015 10000
158 4673 10000
298 2443 9999
49 692 9999
28 3488 10000
400 529 9999
123 3830 10000
324 3687 9999
116 462 9999
346 4958 9999
207 1296 10000
428 3896 10000
307 2084 10000
441 4275 9999
190 3912 9999
11 4146 10000
71 3666 10000
266 1523 9999
115 4477 9999
389 2217 10000
137 1055 10000
202 2481 9999
40 4779 9999
184 1576 9999
373 699 9999
309 1581 10000
484 4926 10000
196 252 10000
309 4693 10000
332 2415 9999
362 1510 10000
227 4251 9999
444 859 9999
20 1686 10000
3 3362 9999
149 1710 9999
318 3569 9999
180 645 9999
432 1833 10000
460 1947 10000
480 3366 10000
84 3415 9999
497 692 9999
89 4234 9999
118 2635 10000
61 4557 10000
154 2828 10000
334 2823 10000
300 4566 9999
326 1139 9999
357 3039 9999
246 4791 9999
188 4803 10000
42 1220 10000
290 2947 10000
438 4293 9999
200 4969 9999
348 2130 10000
436 3751 9999
341 2900 10000
291 3541 9999
298 3465 10000
371 3117 9999
15 75 9999
296 2300 10000
355 1935 9999
54 390 10000
229 2451 10000
79 3465 9999
467 1854 10000
280 2207 10000
312 2752 9999
201 2370 9999
51 371 10000
287 1739 9999
28 3340 10000
51 4502 10000
396 812 10000
379 3098 9999
65 3909 10000
260 1034 9999
217 839 9999
302 4236 9999
255 598 9999
126 2271 9999
3 3712 10000
354 3324 9999
109 3149 9999
482 3116 9999
343 3737 10000
291 2115 9999
319 933 10000
253 4778 10000
247 2883 10000
338 1731 10000
16 358 10000
244 682 10000
162 2054 9999
252 460 9999
2 155 10000
401 4937 9999
59 3507 9999
239 2967 9999
465 2412 10000
252 3323 9999
330 4039 10000
160 2467 10000
437 3945 9999
101 3141 10000
214 1550 9999
437 1661 10000
145 174 9999
35 1212 10000
493 2668 10000
300 1449 9999
254 837 9999
191 4916 10000
5 1148 9999
174 518 9999
78 1332 10000
116 1667 9999
184 4137 10000
23 1942 9999
357 4398 10000
327 3031 9999
240 416 10000
51 236 9999
454 2571 9999
69 3094 10000
228 3537 9999
431 1446 10000
273 2927 10000
304 636 10000
360 1663 10000
498 2167 10000
257 3263 9999
444 4660 9999
44 3995 9999
275 3125 10000
234 1490 9999
480 2560 10000
125 4540 9999
395 1659 9999
400 2280 9999
400 3606 10000
229 3318 9999
388 3703 10000
289 357 9999
162 1158 10000
242 458 10000
121 506 9999
99 1497 9999
427 3136 10000
259 3449 9999
43 1203 9999
342 2274 9999
326 3091 9999
76 2751 10000
265 3260 9999
111 4745 9999
134 4671 9999
90 4047 10000
168 4511 9999
180 1514 10000
364 4831 9999
206 4340 10000
445 2379 10000
487 2735 9999
289 545 9999
331 2331 9999
85 1002 10000
431 740 10000
36 4122 9999
491 2421 10000
438 2428 9999
255 2490 9999
91 4699 10000
482 3158 10000
466 591 9999
273 1104 10000
336 975 10000
457 2535 9999
481 908 9999
32 4080 9999
392 2570 9999
87 4017 9999
209 3003 9999
285 4638 9999
169 1489 9999
466 549 9999
471 3830 9999
329 2438 10000
174 4828 10000
239 2553 9999
346 2262 9999
192 2538 9999
270 2534 10000
202 1418 10000
328 4146 9999
479 3399 9999
184 2277 10000
139 4728 10000
8 4533 9999
334 2296 9999
30 562 10000
145 1729 10000
382 2539 10000
215 2690 10000
22 77 9999
276 2452 9999
134 251 10000
243 4948 9999
418 1796 9999
43 2914 9999
442 1744 9999
342 863 10000
433 3915 9999
98 3456 10000
437 3973 9999
311 2398 9999
217 1482 10000
92 2639 10000
21 4643 10000
429 2711 9999
121 2448 9999
466 4727 10000
44 2473 10000
466 4629 9999
338 1619 10000
320 4856 9999
272 1505 10000
354 2728 10000
251 1232 9999
19 2959 10000
245 1468 9999
279 1135 10000
181 2401 10000
486 3613 10000
268 1149 9999
329 4722 10000
150 1101 10000
321 4294 10000
65 2300 10000
227 3802 10000
207 1745 9999
89 4559 10000
303 1868 9999
10 2352 10000
359 3251 10000
81 3214 9999
355 1854 9999
270 1789 9999
449 3298 9999
400 2697 10000
113 2193 9999
294 986 10000
8 1132 10000
278 2943 9999
414 4721 10000
26 4477 9999
57 4033 9999
145 625 10000
185 491 9999
480 2678 10000
494 2771 9999
162 3911 9999
59 2194 9999
170 4331 10000
20 1367 9999
133 4227 10000
310 4167 10000
203 1965 9999
145 224 9999
127 2174 10000
498 1324 9999
67 3797 9999
40 4385 9999
93 3645 10000
233 2450 10000
131 1338 10000
428 4855 9999
341 4734 10000
276 808 10000
258 989 9999
431 787 9999
148 2300 9999
413 2608 9999
413 667 10000
31 511 9999
439 3570 9999
192 2765 10000
148 3179 9999
64 2658 10000
299 3327 10000
109 2716 9999
5 461 9999
482 3040 10000
242 827 9999
254 1817 10000
353 3971 10000
467 3242 10000
468 2979 10000
247 4921 9999
493 2465 10000
187 4695 9999
272 806 9999
137 821 9999
102 2476 9999
196 1000 9999
429 2588 9999
267 2847 10000
224 470 10000
341 1683 10000
305 1345 10000
390 3204 9999
102 2582 10000
379 2474 10000
13 2719 10000
213 1887 10000
462 1612 10000
127 556 9999
54 4227 9999
155 4310 9999
381 4362 10000
204 2753 9999
458 1591 9999
432 1387 9999
260 1090 9999
185 2251 10000
209 4779 10000
30 1791 10000
252 3404 9999
11 4840 10000
301 2754 10000
304 4609 9999
136 776 9999
290 4143 9999
346 551 10000
296 919 10000
151 1262 9999
367 2999 9999
57 1107 10000
213 2204 9999
170 2652 10000
459 2909 9999
390 1665 9999
369 2953 9999
380 2932 9999
303 4667 9999
408 1924 9999
356 1112 10000
351 4349 9999
362 4350 9999
131 349 10000
244 2366 10000
442 3823 10000
280 886 10000
136 3614 9999
321 585 9999
170 524 10000
87 109 10000
144 1130 10000
143 3581 10000
368 683 9999
255 2419 9999
78 1450 10000
170 1579 9999
74 3469 9999
215 2136 10000
259 1381 10000
246 3526 10000
380 4053 10000
10 3121 9999
287 4486 9999
79 3567 10000
408 2623 10000
39 3213 10000
224 4670 10000
113 2014 10000
96 737 9999
381 1745 9999
316 3374 9999
462 3917 9999
289 2772 10000
464 2626 10000
355 4710 9999
238 454 9999
340 4923 9999
80 2889 9999
26 1232 10000
290 4398 9999
31 2900 9999
400 3771 9999
95 895 9999
196 3195 9999
84 1306 9999
247 1405 9999
159 2011 10000
20 1652 10000
59 3962 10000
347 1094 10000
75 2173 10000
236 2630 9999
188 3233 9999
155 1671 9999
401 4932 9999
190 3853 9999
439 3675 10000
381 1450 10000
151 1941 9999
227 4120 9999
59 2260 10000
51 3222 9999
253 4030 10000
478 4277 10000
113 2685 9999
181 4462 9999
114 1370 10000
479 3685 9999
57 1762 9999
304 2584 9999
225 4116 10000
204 1145 9999
85 4292 9999
340 4222 10000
474 1061 10000
8 3255 10000
342 3061 10000
476 3140 10000
239 1819 10000
285 3040 10000
396 4349 9999
23 2904 9999
7 393 9999
133 1288 9999
188 4711 9999
165 4200 10000
307 2805 10000
239 3281 9999
194 4496 9999
307 3586 10000
246 3072 10000
372 1609 9999
145 4195 10000
374 2429 10000
252 1484 9999
66 2657 9999
470 3623 10000
270 4874 9999
145 476 9999
113 2219 9999
424 3621 9999
73 4487 10000
168 4299 9999
406 2928 10000
397 653 9999
427 3019 9999
478 2078 9999
170 302 10000
121 1454 9999
277 3995 9999
438 492 9999
66 290 10000
111 3647 10000
360 598 9999
184 4919 9999
385 2637 9999
348 2825 10000
472 2264 9999
149 2072 9999
461 4977 10000
28 202 10000
238 4973 10000
1 3103 10000
155 2274 9999
257 4405 10000
188 3533 9999
4 2194 10000
213 2209 9999
239 1479 10000
74 4600 9999
220 2806 9999
46 2808 9999
9 230 10000
175 4985 9999
20 2745 10000
178 4213 10000
338 759 10000
35 1699 10000
344 727 9999
385 1518 10000
141 918 9999
29 2372 9999
421 2684 9999
364 3658 9999
384 3188 9999
232 2078 10000
463 962 9999
472 3220 10000
318 1074 9999
145 1949 10000
31 4268 10000
100 443 9999
86 4409 10000
19 4636 9999
365 1897 9999
419 2482 9999
329 2038 10000
405 4439 10000
17 4607 9999
50 1298 9999
293 4198 9999
44 1367 10000
80 2967 9999
273 2731 10000
88 4723 10000
48 1331 10000
222 3169 9999
344 2250 9999
32 272 9999
316 4885 10000
462 3371 10000
425 929 10000
399 815 9999
105 4828 10000
368 828 10000
229 1302 10000
8 373 9999
29 4913 9999
238 1747 10000
426 2945 9999
228 1271 10000
370 4718 9999
223 926 9999
174 1744 9999
297 334 10000
458 2884 9999
31 1972 9999
166 3055 10000
29 2194 10000
74 905 9999
225 2383 9999
427 2641 9999
375 1216 9999
360 3836 10000
155 3541 9999
40 4169 10000
27 1124 10000
227 4651 10000
339 694 10000
77 3927 9999
280 3864 10000
305 3973 10000
62 321 10000
214 1917 10000
286 4953 10000
88 4247 10000
296 2668 9999
171 2931 9999
90 1624 10000
76 677 9999
321 4269 10000
129 3121 9999
139 363 9999
400 1495 10000
229 3259 9999
328 449 9999
294 3217 9999
177 555 9999
114 511 10000
251 3110 9999
317 4256 10000
157 4751 10000
118 2499 10000
353 1132 10000
122 1360 9999
145 2981 9999
45 3343 9999
244 4466 9999
88 4945 9999
455 4365 10000
211 2868 9999
308 853 9999
258 2649 9999
13 858 9999
325 4266 10000
36 779 10000
53 2530 10000
371 4440 9999
413 3217 9999
79 2952 10000
371 3063 10000
20 285 9999
409 2331 9999
317 2782 9999
486 714 9999
279 2218 10000
426 3121 9999
248 1849 10000
415 4242 9999
216 2568 10000
195 2031 10000
496 3733 9999
390 3094 9999
165 2655 10000
313 4906 9999
419 4325 9999
166 1249 10000
327 1650 10000
42 410 9999
186 3156 9999
14 1686 10000
409 1213 10000
269 2448 10000
350 3389 10000
233 827 10000
88 4655 10000
81 3786 9999
478 4597 10000
4 1770 10000
238 2588 10000
183 3740 9999
494 1376 9999
76 3172 10000
44 1556 10000
21 4617 9999
320 1381 10000
344 1759 10000
201 1344 10000
20 2118 9999
375 4971 9999
452 1337 9999
305 1002 10000
20 2846 10000
63 2410 10000
3 4030 9999
351 2091 10000
189 2050 10000
141 4509 10000
239 3825 10000
254 1766 10000
43 2238 10000
450 923 10000
395 2600 9999
41 673 10000
406 2816 10000
406 873 10000
89 1801 9999
285 799 10000
105 426 9999
33 1130 10000
440 645 10000
241 3180 9999
369 708 9999
100 1740 9999
354 1369 10000
218 2530 10000
471 3843 9999
408 488 9999
424 2289 10000
487 1280 9999
44 409 10000
326 841 10000
448 736 9999
171 731 10000
354 4484 9999
74 255 10000
108 4723 9999
258 1209 9999
483 1897 10000
320 2484 9999
276 2881 10000
355 2504 10000
169 4080 9999
169 4604 9999
199 3930 9999
498 3068 10000
174 1809 10000
320 3677 9999
422 883 10000
268 1854 10000
102 1551 9999
495 4200 10000
101 3354 10000
353 1991 9999
193 4561 9999
393 4079 9999
144 2884 9999
343 3145 10000
65 128 10000
233 2810 10000
97 4782 10000
8 4790 10000
144 3104 10000
123 4468 9999
254 2717 9999
401 4432 9999
473 4865 10000
239 2148 10000
117 1175 9999
138 3020 10000
77 3905 10000
225 3841 10000
318 4594 9999
332 666 9999
226 3957 10000
211 3446 9999
450 961 9999
149 4104 9999
383 3090 10000
75 4940 10000
420 4371 9999
393 1162 10000
137 517 10000
452 2585 9999
461 4353 10000
155 319 9999
466 4283 10000
38 402 9999
333 3266 10000
64 2453 9999
416 536 9999
321 2020 9999
105 3427 10000
339 3810 9999
77 777 10000
186 465 10000
487 3589 10000
48 1115 9999
206 281 10000
381 4661 9999
179 971 10000
121 1173 10000
313 1083 10000
180 1534 10000
193 4930 9999
285 4600 10000
168 489 10000
40 3378 9999
50 1818 9999
27 4179 10000
88 350 10000
275 1584 10000
315 2659 10000
156 4874 10000
352 603 10000
8 1317 9999
339 1971 10000
452 4361 10000
203 3568 10000
227 3670 9999
149 449 9999
439 4357 10000
435 4157 10000
421 3773 9999
440 2377 9999
178 2747 9999
355 394 9999
143 871 10000
21 1184 9999
254 2892 10000
349 3658 9999
12 478 9999
255 4617 10000
323 3167 10000
123 3836 10000
452 701 9999
37 3406 10000
354 3275 9999
281 3139 9999
92 2439 9999
487 1218 10000
157 2173 10000
75 1895 10000
188 3592 9999
87 1993 10000
465 1121 9999
303 4661 10000
95 1227 9999
313 580 9999
57 3830 10000
364 4213 9999
66 4820 10000
377 2905 10000
446 4823 10000
239 3586 9999
291 4584 10000
347 946 9999
315 1688 10000
448 1082 9999
458 4409 10000
371 2093 9999
315 3552 10000
490 1049 10000
56 3732 10000
454 3604 10000
85 168 9999
213 1727 10000
181 532 10000
282 2554 10000
34 3577 10000
164 1451 10000
290 2188 10000
248 627 9999
42 2408 9999
222 1871 10000
439 2418 9999
434 738 9999
175 3970 9999
199 1091 9999
453 3658 9999
272 4860 9999
62 2863 10000
90 1493 10000
12 2588 9999
337 3715 10000
326 3645 9999
8 3918 10000
221 2539 9999
337 2245 9999
399 3830 10000
471 1756 9999
90 1608 9999
208 1986 9999
287 3435 9999
325 4448 9999
73 1158 9999
324 3159 10000
444 3229 10000
463 2518 10000
185 4496 10000
368 3508 9999
344 520 9999
366 948 9999
376 3888 9999
363 1084 9999
103 4165 10000
441 500 9999
259 2764 9999
420 3931 10000
259 3177 10000
113 212 10000
153 179 10000
31 601 10000
163 1597 10000
330 3889 9999
281 4872 9999
396 3239 9999
124 4511 10000
42 2697 10000
376 700 9999
165 968 9999
187 2803 9999
184 2720 9999
303 2016 10000
247 788 10000
295 1529 10000
406 2445 9999
10 2477 9999
321 1548 9999
41 1650 9999
326 4416 10000
359 2699 10000
182 2808 10000
130 300 10000
65 675 9999
242 423 9999
337 3722 9999
432 1757 9999
13 3097 10000
102 1359 9999
371 3234 9999
425 834 9999
433 3588 9999
305 2317 9999
287 2082 9999
90 3814 10000
356 2231 10000
211 791 10000
370 3393 10000
362 2074 9999
129 1476 9999
165 2340 10000
241 510 10000
44 3094 9999
127 2514 10000
332 1085 10000
27 996 10000
276 513 10000
433 2432 10000
53 708 9999
346 1856 10000
415 3864 9999
453 1425 10000
303 2967 10000
109 1490 9999
433 4596 9999
48 2699 10000
81 4304 10000
181 282 9999
117 4421 9999
226 1365 9999
440 2993 9999
462 4945 10000
141 3750 9999
183 4167 10000
440 3241 9999
3 4027 10000
255 1981 9999
28 4987 10000
474 1987 9999
404 1580 10000
431 4156 9999
447 976 9999
389 4348 9999
493 2659 10000
74 3353 9999
72 2761 10000
478 1752 10000
175 1536 10000
151 2636 9999
445 1552 10000
369 4726 10000
133 241 9999
194 3344 9999
334 1311 9999
269 4049 9999
381 3904 9999
3 2718 10000
465 725 9999
160 3158 9999
303 2214 9999
408 4697 9999
378 532 10000
495 917 10000
248 2136 10000
409 4158 10000
411 1636 9999
112 3935 9999
45 4837 10000
435 1064 9999
482 4470 10000
127 765 10000
435 3627 10000
476 4663 10000
385 2177 9999
185 450 10000
405 3995 10000
72 1888 10000
459 1220 9999
66 4926 9999
407 3645 10000
214 3147 10000
83 2030 10000
230 3347 10000
342 1730 9999
440 4767 9999
198 3447 9999
362 4124 10000
145 4241 9999
102 1730 10000
406 2355 10000
430 2496 9999
57 216 10000
288 1356 9999
398 1481 10000
205 4353 10000
142 1084 9999
302 552 9999
39 652 10000
185 4334 10000
493 1560 10000
11 1402 9999
140 919 9999
33 3035 10000
418 4864 9999
179 4224 9999
120 4425 9999
456 2365 10000
84 2474 10000
419 741 9999
420 4217 10000
184 2864 9999
424 3390 10000
440 4566 9999
263 1260 9999
468 1082 10000
266 2622 10000
45 1623 9999
158 3372 10000
95 1979 10000
275 1584 10000
426 2412 10000
203 4638 9999
274 3585 9999
128 2996 10000
422 3157 9999
395 1254 10000
340 3758 10000
148 2482 9999
156 4519 10000
359 3688 10000
131 363 10000
452 4879 9999
444 631 10000
86 4239 10000
201 928 9999
302 1875 9999
162 2540 9999
286 3385 10000
495 3925 9999
398 964 9999
446 2068 10000
427 2783 9999
464 2703 9999
70 690 9999
137 1242 10000
436 624 10000
310 2552 9999
345 3416 10000
244 2350 9999
261 2400 9999
290 1188 10000
436 587 10000
340 3247 10000
92 3816 10000
69 3492 10000
29 4589 9999
245 2310 9999
215 1504 10000
321 3073 9999
336 2331 10000
4 4873 10000
18 3435 9999
460 1513 10000
475 3372 9999
273 2829 9999
170 2279 9999
105 958 9999
347 2221 10000
184 814 9999
294 3971 9999
480 1170 9999
398 2028 10000
398 3565 10000
177 2600 9999
49 4200 10000
441 1181 9999
466 4715 10000
10 4004 10000
163 834 10000
276 3646 9999
190 4374 10000
179 4293 10000
24 521 10000
480 4445 10000
269 952 9999
479 1159 10000
215 1350 10000
308 1015 9999
7 3953 9999
398 2311 10000
109 479 9999
205 4921 9999
122 1631 10000
16 4618 9999
211 2715 10000
372 4516 10000
315 1729 10000
303 3306 10000
381 2320 10000
155 4577 9999
68 537 10000
241 4903 9999
18 4572 10000
108 2813 9999
373 1085 10000
41 2338 9999
134 440 9999
184 639 9999
319 2212 9999
153 4514 9999
347 1192 9999
308 767 9999
417 1899 10000
350 4437 10000
373 925 9999
382 3157 9999
491 3021 10000
174 4172 10000
458 3660 10000
231 3669 9999
187 4579 10000
156 625 10000
298 4836 10000
24 3962 9999
233 1493 9999
10 3667 10000
358 4215 10000
458 2141 10000
106 4225 10000
130 1660 9999
51 568 9999
11 4223 9999
126 993 9999
181 2111 10000
427 1129 10000
23 1313 10000
312 1173 10000
269 2522 9999
182 1346 9999
437 789 10000
23 919 9999
150 4913 9999
345 1156 10000
135 4065 10000
136 3979 10000
374 3718 10000
318 3393 10000
181 3715 10000
249 2339 10000
320 1757 10000
480 2773 10000
432 3520 10000
79 2056 10000
76 1480 9999
250 3137 10000
151 4417 10000
402 1477 9999
482 1639 9999
18 279 10000
235 4340 10000
459 4222 9999
298 3919 9999
133 3041 10000
307 3988 9999
131 904 10000
44 2638 9999
8 1072 10000
41 166 9999
86 4812 9999
204 435 10000
158 2448 9999
72 4696 10000
340 4935 9999
69 4331 10000
157 4029 10000
454 3920 10000
257 4780 9999
346 1877 10000
449 4952 10000
448 685 9999
77 745 10000
496 4597 9999
132 2272 10000
132 4028 10000
318 3116 9999
321 1906 10000
116 2137 9999
399 3659 10000
479 984 9999
282 3832 9999
50 983 9999
217 2146 10000
477 1094 9999
9 2325 9999
305 2042 9999
427 2895 9999
386 4821 10000
100 3933 9999
459 3299 9999
250 1457 9999
2 2108 10000
311 3780 9999
231 319 9999
300 454 10000
173 303 10000
192 3202 10000
422 3985 9999
475 2459 10000
28 1192 9999
37 4659 10000
331 3714 10000
44 692 10000
419 4926 10000
416 3196 9999
149 2037 10000
27 3734 9999
458 1131 10000
366 3973 9999
73 1772 10000
242 2740 9999
107 1975 9999
68 1042 9999
103 3209 10000
339 2412 10000
248 2545 9999
362 3465 9999
321 1742 10000
492 4623 9999
381 4660 10000
343 4720 9999
76 81 10000
449 2561 10000
450 618 9999
4 2951 10000
18 957 9999
267 1049 10000
324 2369 10000
269 3298 10000
204 4902 10000
500 1193 9999
308 4649 9999
410 3825 10000
181 1976 9999
57 243 10000
34 2888 10000
82 2354 9999
178 3084 9999
147 4490 9999
99 4149 9999
339 1503 9999
204 3120 9999
281 2845 10000
149 2518 9999
235 1519 10000
430 942 9999
397 1414 10000
402 4447 10000
453 2542 10000
96 613 10000
276 3929 10000
114 3671 9999
358 4501 10000
500 1013 10000
495 4906 10000
421 1101 9999
196 2616 9999
209 2801 9999
79 1115 10000
268 3377 10000
87 4396 10000
108 431 10000
444 1403 10000
149 2114 10000
317 1423 10000
216 1799 10000
326 1540 9999
274 3673 10000
304 952 9999
191 1643 10000
261 3198 10000
330 1385 9999
53 1926 10000
3 2208 10000
193 207 10000
331 4146 9999
380 4253 9999
71 1662 10000
343 1718 10000
82 4262 9999
334 2256 10000
465 1754 10000
353 2857 9999
439 800 9999
210 2973 9999
109 4697 9999
44 337 9999
375 1567 10000
10 911 10000
404 4019 9999
62 546 9999
382 4503 10000
35 254 10000
378 3927 10000
391 2108 9999
67 2411 9999
69 4118 10000
468 4383 9999
189 1282 10000
181 1798 10000
302 747 9999
98 3286 9999
316 4230 10000
74 2724 9999
337 3683 10000
235 3794 10000
450 608 10000
40 292 9999
304 4511 9999
324 4971 10000
81 2420 10000
251 4281 10000
421 3751 10000
102 690 9999
233 3127 10000
161 1849 9999
5 1240 9999
291 2097 10000
496 4866 10000
336 4105 10000
124 1018 9999
469 4949 10000
435 1857 10000
296 1513 10000
426 2696 9999
319 3958 10000
456 1579 10000
201 1620 10000
154 4600 10000
350 4325 9999
59 4614 9999
104 3683 9999
217 290 10000
327 4690 9999
266 3647 9999
233 2335 9999
61 2631 10000
256 1875 10000
300 4526 10000
196 2332 10000
247 4808 9999
480 2977 10000
329 1662 9999
240 2284 9999
318 2672 10000
317 967 10000
380 2928 9999
495 3694 10000
33 1852 10000
484 4258 10000
105 3536 10000
177 480 9999
172 1443 9999
14 740 10000
31 2030 9999
444 4132 10000
395 3959 9999
77 1885 10000
265 3606 9999
473 3416 10000
172 2562 9999
25 380 10000
336 4534 9999
179 3452 9999
464 1073 9999
213 3737 10000
409 4282 9999
443 4634 9999
246 614 9999
146 2993 10000
418 1047 10000
320 2379 10000
145 1145 10000
278 3036 10000
52 3409 9999
30 4600 9999
295 2870 10000
473 4644 10000
342 1307 9999
354 3602 10000
52 344 9999
275 4930 9999
372 1306 10000
130 3843 10000
365 3521 10000
268 313 10000
357 417 9999
86 933 9999
238 4302 9999
22 3636 10000
209 1264 9999
49 3292 9999
317 1976 9999
278 730 9999
166 3076 10000
430 1145 9999
340 2567 9999
273 3106 10000
94 1517 10000
11 2667 9999
84 605 10000
344 4459 10000
470 1331 10000
474 4511 9999
101 278 9999
282 422 10000
370 4521 9999
329 2270 9999
230 2166 9999
122 3823 9999
311 3765 9999
35 3747 10000
213 2353 10000
152 2884 10000
179 3766 9999
472 3969 10000
117 921 9999
5 1831 10000
499 1091 9999
189 4648 10000
293 4968 9999
416 1309 10000
460 3128 9999
200 1921 9999
271 3071 9999
343 4102 10000
413 568 9999
6 3910 10000
61 3827 9999
98 2059 9999
305 3706 10000
302 3576 9999
185 2324 9999
439 3449 10000
359 3190 9999
166 1455 10000
431 3180 9999
18 512 10000
302 3334 10000
325 4646 10000
367 2121 10000
482 2908 10000
244 3327 10000
299 4456 9999
207 2317 9999
171 4481 10000
424 1639 10000
283 598 10000
23 3220 9999
361 495 10000
474 4231 9999
143 4519 9999
495 4077 9999
442 3184 10000
477 1543 10000
5 4021 9999
112 1043 10000
411 615 10000
1 2615 9999
202 4081 10000
430 3378 9999
396 495 9999
50 3655 9999
347 737 10000
253 4635 10000
235 2815 10000
55 1475 9999
266 1452 9999
385 4851 10000
167 1460 9999
392 3803 9999
480 2864 10000
493 2747 10000
19 4350 9999
199 4064 9999
481 4688 10000
104 4370 10000
318 4692 9999
462 3665 10000
385 2564 9999
333 2330 10000
348 4392 10000
428 3172 9999
434 4086 10000
214 4502 9999
16 2920 10000
437 4629 9999
319 2416 10000
237 4292 10000
91 2977 10000
104 3905 9999
392 1683 10000
434 839 10000
159 331 9999
151 1060 9999
246 1521 9999
305 3837 10000
77 1069 9999
247 1495 9999
51 4526 10000
481 1624 9999
449 780 9999
212 2602 10000
231 395 9999
461 2636 9999
350 2656 9999
245 3295 9999
385 4578 10000
271 1335 10000
30 3115 9999
365 3700 9999
9 457 10000
292 872 10000
307 2368 9999
234 3764 9999
169 373 10000
49 2805 9999
462 1958 9999
291 1712 9999
480 3805 9999
198 2136 9999
442 4992 9999
477 557 10000
398 2132 9999
363 3158 9999
479 3600 10000
339 2264 10000
293 3071 9999
92 118 9999
147 1281 9999
237 842 9999
1 3369 9999
8 2004 10000
228 874 9999
1 4265 10000
494 1073 10000
76 4596 9999
186 2939 9999
211 3084 9999
466 714 9999
415 4598 10000
209 738 10000
143 2157 9999
417 2201 10000
241 3455 10000
327 2160 10000
30 4548 10000
367 3295 9999
203 4906 10000
177 4157 10000
354 1371 10000
325 4021 9999
264 4363 9999
223 1609 9999
209 1717 10000
206 959 9999
154 1320 10000
305 3487 9999
45 3354 10000
489 3669 9999
491 3220 9999
398 2224 9999
88 4635 10000
284 3478 10000
265 3493 9999
472 3901 9999
248 1021 10000
285 633 10000
425 929 9999
152 4506 10000
444 1919 9999
97 4994 10000
328 1351 10000
267 4444 9999
178 473 10000
288 1139 9999
265 4731 10000
262 2201 10000
170 2749 9999
315 3936 9999
183 368 9999
91 4704 10000
477 2789 10000
150 3871 10000
325 4721 10000
358 2802 9999
488 2213 9999
133 4264 9999
403 2097 10000
402 4024 9999
372 4137 9999
418 3262 9999
149 4449 10000
272 2434 10000
53 3899 9999
183 2718 9999
154 1419 10000
161 4272 10000
25 3409 10000
171 3956 10000
161 4551 9999
314 2665 9999
297 3726 10000
387 3428 10000
80 3876 9999
28 4074 9999
493 3115 10000
328 425 10000
230 4818 9999
335 2960 10000
344 2145 9999
293 2984 9999
467 4926 10000
210 3912 9999
46 3366 9999
20 158 9999
258 3909 9999
478 2730 9999
291 1550 10000
349 1757 10000
301 4403 10000
284 320 9999
200 3652 10000
95 4125 9999
231 4305 9999
95 2104 9999
278 1657 9999
485 3355 9999
39 831 9999
82 1493 9999
111 2739 10000
148 4711 10000
426 1197 10000
270 1440 10000
307 1068 10000
121 1487 10000
346 2153 9999
429 4626 9999
397 665 9999
449 2381 10000
2 4596 10000
66 3464 9999
447 3007 9999
68 285 9999
35 4528 10000
385 3363 10000
36 3592 9999
386 2815 9999
303 1850 9999
390 442 10000
44 4525 9999
161 4496 10000
142 4344 10000
200 2701 9999
320 4543 9999
106 432 10000
32 3377 9999
225 267 9999
78 3413 10000
419 3235 9999
142 448 9999
255 4411 10000
60 1782 9999
366 3013 10000
228 3920 9999
451 2153 9999
89 2916 10000
244 2160 10000
217 1311 10000
462 3195 9999
213 4028 10000
255 3719 9999
242 2847 10000
26 1862 9999
90 3839 10000
132 484 10000
391 3861 10000
145 3060 9999
172 455 9999
179 4609 9999
349 932 10000
136 201 10000
270 1501 9999
347 444 9999
317 4071 9999
203 1232 10000
323 3106 10000
54 1824 9999
414 4454 10000
191 2069 10000
135 1559 10000
190 1646 9999
49 3105 10000
317 4196 10000
200 3170 9999
263 2045 10000
103 3924 10000
365 3357 10000
330 2629 9999
79 791 9999
453 4191 10000
116 711 10000
435 2298 9999
378 4195 10000
323 2838 9999
260 2624 10000
8 2422 9999
356 3611 9999
133 1774 10000
90 470 9999
272 2297 9999
373 2392 10000
193 1067 10000
139 4306 9999
170 3434 9999
498 1399 10000
154 1846 10000
178 1961 10000
18 1099 10000
257 1323 9999
364 3690 9999
280 4854 9999
133 2938 9999
420 2920 9999
115 2967 9999
369 3277 9999
412 2226 10000
206 1485 10000
167 1953 9999
28 4769 9999
139 3707 10000
463 3737 10000
490 4651 10000
384 3787 9999
185 1629 9999
474 3282 10000
12 2665 9999
500 4309 10000
198 1824 9999
365 1101 9999
214 580 9999
60 244 10000
386 3886 9999
77 882 9999
89 1448 9999
252 1078 10000
132 1922 10000
133 3278 10000
243 1811 10000
439 3022 10000
215 4989 10000
429 2963 9999
375 3461 10000
469 2629 9999
255 3259 9999
55 3359 10000
344 3205 10000
343 3449 9999
241 4243 9999
41 3101 9999
387 3207 10000
264 3868 9999
148 634 10000
287 1082 10000
463 727 10000
40 4580 10000
205 4073 9999
310 758 10000
110 3768 10000
178 4952 9999
276 1718 10000
244 2901 9999
424 2635 9999
292 2281 10000
55 709 9999
408 3072 10000
97 1224 10000
171 3107 10000
463 1234 9999
418 1308 10000
180 4114 9999
119 2600 9999
230 3997 10000
379 3118 10000
383 2319 9999
142 3942 9999
378 3993 9999
465 2052 9999
119 3534 9999
424 1437 10000
85 4336 9999
110 1731 9999
165 4896 10000
286 1270 9999
151 3357 9999
363 736 9999
108 2769 10000
466 3739 10000
448 1567 9999
318 3539 10000
195 1998 9999
326 520 10000
79 697 10000
19 2102 10000
234 3748 9999
259 4084 10000
380 4130 10000
420 696 9999
332 3732 9999
380 3035 9999
326 484 9999
191 916 9999
107 224 9999
346 4658 10000
20 2785 10000
398 3059 9999
458 3995 9999
437 555 9999
102 2003 10000
262 3446 10000
459 603 10000
28 4357 9999
231 3704 10000
170 377 10000
413 1013 10000
140 3662 9999
84 4621 10000
184 3007 9999
124 218 9999
357 1328 9999
203 1512 10000
420 805 10000
67 3054 9999
162 3613 9999
313 3200 9999
292 2855 10000
204 1459 10000
29 193 10000
277 1446 10000
393 2626 9999
89 3962 9999
296 3552 9999
79 2071 9999
389 4151 10000
163 2257 10000
210 2788 9999
102 4505 10000
36 2788 9999
380 2140 10000
147 4194 10000
227 4875 9999
400 496 10000
241 2615 9999
373 2034 9999
248 1713 9999
409 2898 10000
120 2137 10000
304 1079 10000
418 2897 9999
172 2086 10000
117 2737 9999
82 938 9999
43 1724 10000
46 1719 9999
228 665 9999
205 2379 10000
228 290 9999
162 3827 10000
106 1737 10000
23 1125 10000
275 4460 9999
160 3063 9999
78 850 10000
43 4490 10000
201 2735 9999
153 3501 9999
241 1835 10000
340 3601 10000
256 4590 9999
367 643 9999
205 2509 10000
104 4820 9999
179 2010 9999
346 869 10000
129 1672 10000
162 3426 10000
2 1591 10000
104 4775 10000
374 4346 9999
330 3044 9999
471 997 10000
373 3444 10000
121 3776 10000
286 1281 9999
448 4952 9999
353 4317 9999
345 678 9999
454 3236 9999
125 2605 9999
114 1651 10000
277 2704 9999
328 3997 10000
55 4998 9999
486 4168 10000
453 4662 10000
295 1052 10000
9 3749 9999
83 388 10000
374 3613 9999
425 583 10000
362 389 10000
337 4045 9999
455 1715 10000
76 240 9999
409 1703 9999
34 2887 9999
366 1640 10000
402 742 9999
291 1917 10000
210 1970 10000
308 4796 10000
1 1495 10000
221 2739 10000
121 1650 10000
353 4405 9999
466 2106 10000
431 4729 9999
326 3163 10000
80 487 10000
289 1138 10000
154 4734 10000
103 428 9999
380 4060 10000
92 2558 10000
69 799 10000
152 3116 9999
150 4529 9999
375 1631 9999
189 4663 9999
153 1005 9999
241 2944 10000
33 3492 9999
26 889 10000
39 1310 10000
319 2510 9999
43 2199 9999
394 2076 10000
71 1894 10000
458 4615 9999
39 1519 9999
219 3908 10000
104 4753 9999
126 4663 10000
70 4562 10000
447 2101 9999
398 1776 9999
154 3706 9999
347 2195 9999
407 3242 9999
341 4644 9999
123 446 9999
258 1500 10000
313 995 9999
452 4839 10000
233 2493 10000
88 2158 10000
154 553 9999
293 398 9999
497 2274 9999
163 4938 9999
185 1877 10000
52 451 9999
428 4575 10000
447 2204 10000
343 3520 10000
412 4856 9999
328 2568 9999
343 4079 10000
324 3095 9999
468 2193 10000
156 1260 10000
169 4112 9999
327 4843 10000
205 4081 10000
494 1906 10000
410 3410 10000
14 3848 10000
306 4209 9999
122 735 10000
331 1104 9999
81 4544 9999
255 850 10000
337 694 9999
478 3280 10000
8 2554 9999
97 4930 10000
152 927 9999
111 3168 10000
419 2657 9999
86 4637 10000
348 4228 9999
368 2893 10000
143 1629 9999
372 1453 10000
132 4386 10000
257 1816 10000
316 2104 9999
341 4815 10000
474 2517 10000
93 3064 10000
259 2059 9999
411 4901 10000
317 1093 10000
373 1586 9999
372 2670 9999
365 4238 10000
53 2532 9999
188 2880 10000
415 1074 10000
457 1446 10000
299 969 10000
448 697 10000
439 696 9999
463 3729 10000
145 792 9999
166 826 10000
315 2571 10000
191 2843 9999
169 827 10000
132 2203 9999
397 3850 10000
9 1180 9999
28 3193 9999
78 3853 9999
394 2585 9999
342 4588 9999
222 1677 10000
453 4466 10000
337 4343 10000
377 1791 10000
270 2179 9999
149 170 9999
69 4794 10000
156 4136 10000
227 4327 10000
252 4649 10000
272 1959 9999
244 3663 10000
487 3980 10000
51 3239 9999
107 4676 9999
498 3517 10000
158 1002 10000
124 2851 9999
194 2355 10000
176 2036 9999
96 3259 9999
488 3105 9999
69 1157 9999
346 1701 10000
144 2609 10000
163 4874 10000
463 2166 10000
271 4593 10000
334 1329 10000
162 4475 10000
303 2840 10000
76 3199 10000
446 1023 9999
93 4316 10000
380 4501 9999
429 2569 10000
124 1407 9999
242 3798 9999
213 4004 10000
234 1476 9999
321 1276 10000
137 3302 9999
315 3373 10000
215 845 10000
212 3200 10000
420 761 10000
10 4826 10000
493 1242 9999
23 2740 9999
263 2636 9999
60 3645 9999
75 2648 9999
40 1356 9999
79 192 10000
129 441 9999
142 350 9999
198 252 9999
202 3179 10000
371 4382 9999
294 1139 9999
15 2959 10000
373 3588 9999
68 3934 10000
221 471 9999
347 3774 9999
126 4149 10000
320 428 9999
346 482 9999
30 2398 10000
477 1344 9999
311 4993 9999
244 3928 10000
344 764 9999
149 1330 10000
372 919 10000
224 1829 9999
44 936 10000
396 4937 10000
22 3097 10000
220 944 10000
11 4781 9999
245 4378 9999
257 3698 9999
28 2680 9999
454 1570 9999
263 2795 9999
456 790 10000
276 3359 10000
486 2021 10000
294 3304 10000
322 3769 9999
72 4700 10000
278 2688 10000
434 4359 10000
188 3482 9999
263 4010 10000
447 4907 9999
429 907 9999
260 1290 9999
160 1903 10000
357 2647 10000
372 3964 9999
341 2305 10000
50 3935 9999
451 976 9999
273 1383 10000
251 3838 9999
29 135 10000
278 1295 9999
57 3427 10000
55 3634 9999
350 1563 9999
364 2075 9999
160 1544 9999
294 2365 9999
224 4669 10000
266 3713 9999
7 2542 10000
55 926 9999
118 3029 10000
241 475 10000
205 2211 9999
149 2645 10000
288 4492 10000
284 3729 10000
46 3596 10000
361 1140 9999
496 3738 10000
453 1755 10000
311 2897 9999
446 611 10000
210 3098 10000
229 2045 9999
463 2040 10000
263 4472 10000
73 2236 10000
35 115 9999
342 4677 9999
372 4984 9999
62 4350 10000
172 3341 9999
483 1217 9999
66 4190 10000
331 1470 9999
279 2558 10000
213 4792 10000
470 2605 10000
219 2440 9999
154 746 10000
453 3654 10000
19 2796 9999
223 3600 10000
316 1909 9999
29 4626 9999
403 3566 10000
196 197 10000
128 2102 10000
395 3577 10000
354 3349 9999
99 4635 9999
72 2171 9999
36 2389 9999
57 3291 10000
451 1792 9999
285 2308 10000
273 4108 9999
145 4639 10000
410 1840 10000
114 1579 9999
40 4522 9999
286 1458 9999
104 4111 9999
275 1469 10000
150 2589 9999
175 2899 9999
244 4895 10000
146 4257 9999
126 4145 9999
45 1114 10000
461 2678 10000
192 3977 10000
479 1114 9999
215 279 9999
130 3650 10000
420 925 10000
14 4803 10000
14 3467 9999
59 3267 10000
489 1842 10000
356 1621 10000
326 3256 10000
47 113 10000
15 1175 10000
402 4560 9999
477 4284 10000
19 2106 9999
139 1816 9999
12 395 10000
233 2610 10000
89 843 10000
35 1392 9999
389 951 9999
31 3029 10000
243 2701 9999
308 2323 9999
388 1470 10000
203 1088 9999
172 3558 9999
420 1355 10000
400 1298 10000
298 2144 9999
286 2280 10000
209 4739 10000
252 1841 10000
1 3824 10000
61 3366 9999
351 3435 9999
282 4422 10000
67 919 10000
380 4145 10000
126 3254 10000
450 4403 10000
351 2624 10000
377 2488 9999
386 3409 9999
408 929 9999
197 3337 9999
101 1735 9999
408 2907 9999
80 1282 10000
449 557 10000
137 3423 9999
259 2500 10000
377 3109 9999
217 1551 9999
365 2265 9999
440 3986 9999
107 4776 10000
216 1860 10000
9 176 10000
204 4293 9999
78 3923 9999
221 4299 10000
373 3382 9999
174 2268 9999
268 1525 9999
392 4732 10000
407 4881 10000
219 1891 9999
478 2327 10000
67 918 9999
235 1733 9999
492 4718 10000
437 1879 9999
281 4486 9999
287 2286 10000
353 2941 10000
458 2465 9999
493 1221 10000
177 711 9999
49 427 10000
124 4274 10000
379 2952 10000
392 2036 10000
168 2409 9999
123 3304 9999
254 2770 9999
203 4126 10000
122 1255 9999
160 1875 9999
430 1009 9999
178 4041 10000
62 2498 9999
58 1696 10000
367 1437 10000
188 1020 10000
36 4908 9999
131 3032 10000
179 4603 9999
463 2967 9999
237 506 10000
278 466 10000
97 609 9999
301 1969 10000
5 1140 10000
139 1825 10000
344 4844 10000
351 2615 9999
406 3315 10000
91 3417 10000
24 3429 9999
273 4044 9999
250 1912 9999
321 1051 9999
218 1996 9999
429 2875 9999
35 2482 9999
377 1406 9999
216 3153 9999
20 2925 9999
236 3550 10000
58 1849 9999
345 1501 10000
257 3893 9999
257 576 9999
356 3921 10000
221 752 9999
15 2903 10000
339 3087 10000
231 2920 10000
383 3531 10000
71 4406 10000
111 2630 9999
160 2832 9999
121 4584 9999
184 3132 10000
325 2318 10000
446 4423 10000
457 3874 9999
24 3358 10000
414 3896 10000
48 3553 9999
59 2698 9999
179 3208 9999
112 2466 10000
269 4803 9999
125 3535 9999
241 1805 10000
184 3754 10000
357 1010 10000
124 4792 10000
184 4591 10000
169 3404 10000
435 3238 10000
386 1563 10000
365 4566 9999
427 1093 10000
412 4790 9999
453 4478 9999
52 3065 10000
428 1194 10000
262 2414 10000
437 999 10000
424 1796 10000
141 3927 9999
152 3111 10000
327 980 9999
427 4116 10000
356 2616 9999
186 1188 10000
254 4302 9999
16 4233 10000
464 4668 10000
440 1154 10000
279 2537 9999
229 325 10000
388 571 9999
95 4441 9999
135 4463 9999
433 2805 9999
13 3353 10000
262 2674 10000
315 4761 10000
190 3164 9999
356 1173 10000
225 4018 10000
345 3082 10000
73 1313 10000
65 2491 9999
13 638 10000
144 1528 9999
178 1848 9999
274 3787 10000
238 4310 10000
454 581 10000
364 1730 9999
426 3554 9999
455 2942 9999
97 4310 9999
300 4473 10000
241 1081 10000
165 4267 9999
145 4813 10000
297 4371 10000
248 3381 10000
287 1250 10000
224 2638 9999
285 2698 10000
223 4905 9999
440 4173 10000
297 502 10000
18 269 9999
141 1825 9999
26 4166 9999
217 1672 9999
102 385 10000
309 1037 10000
345 1075 9999
112 1641 10000
230 3397 10000
461 3401 10000
144 2127 10000
381 3293 9999
327 400 10000
441 1177 10000
72 1077 9999
98 4714 9999
437 3234 9999
86 560 9999
91 3087 10000
220 1968 9999
90 3298 10000
476 1035 9999
13 3953 9999
348 731 10000
27 1640 10000
263 339 9999
218 1590 10000
15 1815 10000
197 4438 9999
403 1958 10000
172 3539 10000
45 722 9999
66 2483 10000
288 835 10000
244 3303 10000
105 4945 9999
291 1784 9999
15 743 10000
143 3198 9999
51 3625 10000
150 4110 10000
54 1465 10000
453 4610 9999
54 1232 9999
300 3127 9999
263 526 9999
121 3361 10000
318 1111 10000
238 3258 9999
418 4537 9999
191 2203 10000
81 1827 9999
76 904 9999
181 4421 9999
98 4973 9999
463 4816 9999
205 317 10000
164 811 10000
137 1121 10000
309 4137 10000
7 3051 9999
209 3323 10000
102 3257 10000
8 3163 9999
442 4259 10000
1 2732 9999
446 2870 10000
486 2515 10000
261 4086 9999
106 110 9999
263 3905 10000
49 1385 9999
63 2469 9999
195 4774 10000
430 4070 10000
127 1152 9999
296 1979 9999
219 2179 9999
82 2132 10000
474 1073 9999
127 4245 9999
196 2333 10000
443 4302 10000
414 1107 10000
35 2866 9999
194 2370 10000
39 1801 9999
77 2553 10000
182 3199 9999
367 2596 9999
417 2422 9999
62 3710 10000
26 1025 10000
8 3259 10000
456 3019 10000
294 3129 10000
395 2335 10000
418 826 9999
89 429 10000
94 4374 10000
490 4453 10000
419 2625 10000
272 4989 9999
127 4265 10000
256 4170 9999
442 1100 9999
239 2892 10000
207 2983 10000
86 4887 9999
409 2282 10000
181 304 10000
219 3600 10000
423 2518 10000
144 2443 9999
9 2047 10000
95 3315 9999
419 2804 10000
464 2551 9999
293 2866 10000
226 644 9999
258 4902 10000
161 1350 10000
237 2766 10000
9 242 10000
398 3552 9999
455 466 10000
401 4413 10000
242 334 9999
223 653 9999
15 1653 9999
403 3619 10000
39 363 10000
197 4457 9999
182 2213 9999
18 3840 9999
156 1661 10000
144 612 10000
25 1461 9999
55 4190 10000
496 2171 9999
245 4145 9999
291 2784 9999
302 2743 9999
442 1932 10000
214 2676 10000
166 3724 10000
183 3168 10000
22 4605 9999
263 3004 10000
111 4113 9999
66 204 10000
411 4518 9999
59 2040 10000
329 4433 10000
360 4971 9999
188 1345 9999
291 4940 10000
491 3976 9999
413 3823 10000
60 1391 10000
430 1438 10000
165 4955 9999
257 2131 10000
297 1637 10000
91 1326 10000
279 1885 9999
21 1674 9999
469 3830 10000
84 2274 9999
401 1696 9999
372 2594 10000
401 1828 10000
228 777 10000
332 704 9999
373 3803 10000
128 1083 10000
443 4419 10000
428 1906 9999
439 4641 9999
217 2911 10000
239 1462 9999
71 898 10000
129 3756 10000
439 502 10000
178 3179 10000
9 3531 9999
366 2951 10000
242 788 9999
466 2391 10000
334 1144 10000
164 4249 9999
442 4908 9999
431 1663 9999
358 2436 10000
325 4207 10000
343 380 9999
416 698 10000
141 4344 9999
338 4014 10000
99 3271 10000
262 3241 10000
488 1722 9999
141 1865 10000
360 2335 10000
481 4049 9999
362 4768 9999
279 4162 10000
192 784 9999
115 4253 9999
390 1817 9999
62 3650 10000
232 1675 10000
450 730 10000
464 553 9999
32 93 9999
329 4063 10000
402 4123 10000
126 4471 9999
157 3544 10000
256 2927 10000
240 1789 10000
41 3605 9999
56 1416 9999
112 1324 10000
51 4853 9999
298 1522 10000
154 3321 9999
158 3688 10000
409 777 9999
497 667 10000
293 4866 9999
212 4205 10000
165 2750 10000
104 3843 9999
386 4876 10000
146 3846 9999
388 823 9999
289 4812 9999
127 471 9999
269 3181 9999
268 3974 10000
254 4258 9999
496 2819 10000
69 4389 10000
377 3319 9999
333 1140 9999
44 4660 10000
182 1347 10000
352 965 10000
455 1047 9999
262 2741 10000
445 1042 9999
